1 2
1 3
1 4
2 319
2 27
2 24
2 25
2 23
2 18
2 17
2 16
2 19
2 20
2 21
2 50
2 3
2 4
2 320
2 60
2 63
2 321
2 249
2 322
2 28
2 9
2 32
2 31
2 323
2 132
2 324
2 131
2 316
2 325
2 326
2 213
2 62
2 35
2 327
2 61
2 328
2 329
2 178
2 330
2 331
2 332
2 247
2 39
2 333
2 334
2 278
2 335
2 336
2 153
2 176
2 248
2 55
2 110
2 337
2 338
2 30
2 339
2 340
2 341
2 342
2 343
2 49
2 270
2 10
2 69
2 239
2 266
2 261
2 58
2 243
2 38
2 230
2 344
2 345
2 346
2 347
2 348
2 349
2 350
2 185
2 351
2 352
2 194
2 228
2 353
2 106
2 167
2 36
2 354
2 37
2 107
2 355
2 26
2 356
2 73
2 72
2 357
2 112
2 358
2 359
2 276
2 44
2 360
2 255
2 244
2 361
2 29
2 362
2 363
2 364
2 365
2 366
2 367
2 368
2 46
2 118
2 369
2 370
2 371
2 372
2 250
2 373
2 374
2 40
2 375
2 376
2 377
2 378
2 379
2 277
2 246
2 380
2 251
2 381
2 382
2 383
2 384
2 385
2 386
2 265
2 263
2 258
2 268
2 267
2 264
2 262
2 269
2 259
2 260
2 271
2 272
2 387
2 388
2 389
2 390
2 391
2 392
2 393
2 394
2 395
2 396
2 397
2 398
2 399
2 400
2 165
2 401
2 402
2 56
2 57
2 403
2 43
2 42
2 404
2 13
2 405
2 406
2 407
2 408
2 409
2 410
2 411
2 412
2 413
2 414
2 415
2 416
2 111
2 257
2 205
2 417
2 418
2 103
2 419
3 320
3 2323
3 2324
3 60
3 61
3 63
3 673
3 73
3 674
3 675
3 2
3 27
3 4
3 58
3 325
3 2204
3 35
3 67
3 1846
3 68
3 62
3 672
3 1695
3 20
3 752
3 51
3 64
3 213
3 769
3 852
3 2325
3 122
3 2112
3 321
3 2205
3 249
3 1227
3 1226
3 322
3 65
3 450
3 16
3 326
3 1732
3 371
3 2326
3 19
3 1982
3 327
3 394
3 32
3 178
3 46
3 1239
3 23
3 953
4 325
4 850
4 849
4 1011
4 321
4 1012
4 1310
4 1015
4 1009
4 320
4 213
4 3
4 27
4 1196
4 846
4 67
4 2
4 1
4 2204
4 51
4 60
4 19
4 2205
4 63
4 20
4 249
4 61
4 65
4 273
4 274
4 72
4 389
4 31
4 55
4 10
4 729
4 28
5 6
5 7
5 8
6 5
6 7
7 1612
7 1613
7 5
7 395
7 956
7 46
8 100
8 923
8 32
8 24
8 28
8 205
8 56
8 57
8 390
8 23
8 1321
8 1047
8 2005
8 583
8 1192
8 46
8 1172
8 2
8 3
9 928
9 1357
9 1358
9 28
9 2
9 936
9 257
9 37
9 178
9 10
9 23
9 355
9 255
9 69
9 239
9 49
9 32
9 559
9 1136
9 73
9 562
9 176
9 58
9 106
9 453
9 31
9 175
9 940
9 348
9 361
9 35
9 266
9 244
9 402
9 250
9 373
9 55
9 356
9 110
9 26
9 626
9 39
9 111
9 112
9 24
9 1359
9 27
9 213
9 1360
9 251
10 1549
10 515
10 513
10 360
10 717
10 737
10 511
10 512
10 440
10 510
10 514
10 740
10 516
10 55
10 389
10 111
10 28
10 23
10 270
10 39
10 69
10 153
10 9
10 248
10 421
10 719
10 608
10 518
10 273
10 110
10 388
10 178
10 56
10 57
10 1024
10 120
10 1275
10 36
10 271
10 272
10 2
10 374
10 257
10 1697
10 379
10 32
10 247
10 239
10 417
10 24
10 25
10 800
10 31
10 246
10 41
10 205
10 395
10 266
10 29
10 112
10 244
10 249
10 37
10 73
10 250
10 38
10 49
10 40
10 151
10 176
10 192
10 253
10 243
10 361
10 58
10 72
10 16
10 261
10 50
10 263
10 258
10 106
10 319
10 228
11 1200
11 1711
12 13
12 14
12 15
13 14
13 36
13 272
13 271
13 12
13 15
13 1951
13 28
13 395
13 23
13 405
13 406
13 407
13 1939
13 107
13 112
13 10
13 350
13 1662
13 355
13 244
13 25
13 24
13 560
13 491
13 2
13 31
13 73
13 37
13 34
13 33
13 56
13 57
13 42
13 362
13 35
13 153
13 422
13 431
13 254
13 374
13 616
14 13
14 36
14 15
14 12
14 28
15 12
15 14
15 13
15 1174
15 23
15 355
15 28
16 17
16 18
16 2
16 19
16 20
16 21
16 22
16 23
16 24
16 25
16 26
16 27
16 28
16 29
16 10
16 30
16 31
16 32
16 33
16 34
16 35
16 36
16 37
16 38
16 39
16 40
16 41
16 42
16 43
16 44
16 45
16 46
16 47
16 48
16 49
16 50
16 51
16 52
16 53
16 54
16 55
16 56
16 57
16 58
17 18
17 21
17 2
17 16
17 19
17 20
17 380
17 323
17 22
17 384
18 21
18 17
18 2
18 16
18 19
18 20
18 50
18 384
18 2088
18 27
18 23
19 17
19 18
19 2
19 16
19 20
19 21
19 323
19 27
19 50
19 132
19 23
19 35
19 3
19 31
19 25
19 24
19 28
20 16
20 18
20 22
20 325
20 67
20 842
20 843
20 2
20 19
20 844
20 17
20 754
20 845
20 249
20 27
20 4
20 846
20 60
20 62
20 847
20 672
20 3
20 68
20 848
20 321
20 849
20 850
20 851
20 852
20 63
20 61
20 65
20 51
20 213
21 1544
21 17
21 18
21 2
21 16
21 19
21 380
21 2026
22 844
22 20
22 16
22 27
22 2
22 67
22 843
22 3
22 846
23 560
23 36
23 937
23 192
23 165
23 297
23 251
23 386
23 24
23 270
23 153
23 37
23 421
23 319
23 422
23 176
23 248
23 253
23 243
23 361
23 56
23 57
23 254
23 423
23 413
23 25
23 424
23 425
23 426
23 427
23 428
23 429
23 430
23 431
23 432
23 433
23 374
23 120
23 1275
23 1572
23 1573
23 88
23 92
23 93
23 89
23 91
23 94
23 95
23 403
23 2
23 28
23 31
23 178
23 58
23 489
23 107
23 355
23 244
23 10
23 39
23 38
23 415
23 494
23 439
23 132
23 69
23 1550
23 261
23 1493
23 1956
23 356
23 266
23 167
23 362
23 1546
23 1748
23 112
23 491
23 474
23 398
23 395
23 228
23 106
23 322
23 194
23 350
23 397
23 564
23 26
23 110
23 1095
23 354
23 614
23 1172
23 1752
23 276
23 407
23 405
23 1532
23 329
23 334
23 9
23 375
23 1957
23 30
23 800
23 44
23 278
23 249
23 346
23 42
23 43
23 175
23 239
23 378
23 49
23 205
23 35
23 348
23 257
23 692
23 246
23 55
23 273
23 274
23 271
23 272
23 1958
23 301
23 414
23 402
23 379
23 73
23 151
23 1724
23 358
23 357
23 1075
23 359
23 1055
23 994
23 404
23 1302
23 111
23 255
23 332
23 16
23 27
23 454
23 360
23 333
23 265
23 29
23 694
23 250
23 40
23 303
23 18
23 19
23 928
23 1569
23 990
23 214
23 177
23 33
23 34
23 924
23 382
23 72
23 453
23 46
23 1047
23 118
23 369
23 900
23 1780
23 1778
23 145
23 701
23 381
23 554
23 1959
23 436
23 1485
23 925
23 259
23 706
23 3
23 1277
23 1524
24 56
24 57
24 26
24 112
24 491
24 404
24 23
24 300
24 937
24 176
24 248
24 253
24 243
24 361
24 37
24 25
24 424
24 431
24 432
24 433
24 804
24 747
24 2358
24 2359
24 254
24 423
24 413
24 495
24 425
24 426
24 427
24 428
24 429
24 430
24 421
24 319
24 422
24 733
24 260
24 259
24 791
24 792
24 795
24 608
24 521
24 794
24 103
24 796
24 797
24 798
24 799
24 1327
24 167
24 10
24 28
24 40
24 69
24 2
24 560
24 1532
24 178
24 354
24 1277
24 30
24 39
24 251
24 44
24 9
24 58
24 106
24 36
24 175
24 205
24 239
24 49
24 43
24 42
24 35
24 403
24 692
24 257
24 278
24 355
24 244
24 414
24 408
24 249
24 397
24 402
24 110
24 1055
24 72
24 1485
24 1302
24 31
24 73
24 333
24 55
24 273
24 694
24 255
24 454
24 379
24 360
24 303
24 928
24 990
24 16
24 453
24 614
24 46
24 192
24 439
24 118
24 369
24 137
24 378
24 27
24 322
24 274
24 34
24 33
24 38
24 153
24 270
24 329
24 302
24 390
24 412
24 411
24 13
24 405
24 406
24 407
24 409
24 410
24 29
24 250
24 50
24 261
24 265
24 258
24 263
24 266
24 252
24 366
24 382
24 460
24 489
25 382
25 165
25 23
25 301
25 1277
25 55
25 804
25 747
25 24
25 431
25 432
25 176
25 248
25 253
25 243
25 361
25 56
25 57
25 37
25 254
25 423
25 413
25 425
25 426
25 427
25 428
25 429
25 430
25 421
25 319
25 422
25 1326
25 205
25 1055
25 28
25 395
25 350
25 10
25 409
25 404
25 495
25 1204
25 36
25 112
25 228
25 178
25 167
25 58
25 31
25 2
25 322
25 26
25 354
25 107
25 329
25 1532
25 560
25 491
25 69
25 110
25 39
25 30
25 270
25 153
25 257
25 378
25 49
25 239
25 821
25 35
25 415
25 9
25 355
25 386
25 73
25 244
25 626
25 249
25 403
25 402
25 348
25 53
25 40
25 72
25 1628
25 576
25 250
25 694
25 255
25 791
25 454
25 29
25 441
25 302
25 303
25 132
25 928
25 27
25 1533
25 214
25 333
25 990
25 16
25 276
25 405
25 42
25 453
25 46
25 118
25 369
25 1780
25 1778
25 145
25 359
25 1530
25 379
25 1569
25 439
25 43
25 151
25 387
25 106
25 1992
25 272
25 271
25 414
25 38
25 400
25 1993
25 1994
25 374
26 28
26 23
26 24
26 25
26 110
26 2
26 378
26 112
26 379
26 16
26 55
26 990
26 248
26 111
26 32
26 301
26 395
26 354
26 257
26 239
26 49
26 31
26 692
26 244
26 402
26 333
26 43
26 73
26 694
26 10
26 253
26 254
26 192
26 29
27 35
27 2
27 62
27 59
27 132
27 880
27 28
27 16
27 19
27 366
27 92
27 17
27 68
27 1822
27 1823
27 20
27 3
27 60
27 67
27 843
27 64
27 65
27 1824
27 1213
27 450
27 66
27 852
27 61
27 63
27 846
27 1227
27 320
27 4
27 371
27 1825
27 327
27 321
27 1538
27 326
27 51
27 1359
27 23
27 137
27 56
27 57
27 213
27 322
27 257
27 1226
27 319
27 118
27 355
27 36
27 58
27 249
28 375
28 390
28 107
28 1075
28 369
28 359
28 1241
28 1242
28 357
28 682
28 118
28 319
28 2
28 329
28 23
28 55
28 1043
28 328
28 581
28 580
28 694
28 112
28 334
28 178
28 72
28 924
28 276
28 275
28 332
28 1752
28 331
28 2305
28 10
28 31
28 257
28 269
28 917
28 237
28 360
28 379
28 110
28 30
28 16
28 270
28 153
28 36
28 272
28 271
28 69
28 167
28 25
28 397
28 176
28 37
28 24
28 278
28 49
28 239
28 249
28 277
28 355
28 840
28 41
28 244
28 258
28 859
28 73
28 9
28 554
28 401
28 255
28 388
28 389
28 253
28 254
28 250
28 252
28 303
28 34
28 33
28 366
28 132
28 27
28 333
28 26
28 111
28 58
28 248
28 574
28 362
28 1533
28 39
28 230
28 273
28 274
28 40
28 454
28 1629
28 1628
28 361
28 854
28 856
28 54
28 53
28 453
28 214
28 992
28 1384
28 561
28 688
28 857
28 246
28 240
28 245
28 348
28 376
28 377
28 387
28 259
28 260
28 56
28 267
28 264
28 263
29 10
29 23
29 2308
29 2309
29 2
29 31
29 28
29 228
29 16
29 176
29 270
29 153
29 32
29 178
29 559
29 247
29 230
29 1349
29 361
29 39
29 266
29 386
29 248
29 56
29 57
29 2310
29 24
29 250
29 49
29 360
29 379
29 244
29 69
29 25
29 253
29 254
29 341
30 1786
30 1220
30 2001
30 2000
30 28
30 339
30 72
30 23
30 2
30 69
30 244
30 397
30 424
30 31
30 58
30 32
30 1194
30 237
30 550
30 35
30 38
30 559
30 24
30 36
30 404
30 495
30 355
30 928
30 106
30 350
30 178
30 73
30 255
30 112
30 33
30 401
30 34
30 333
30 46
30 138
30 354
30 25
30 10
30 39
30 137
30 800
30 49
30 40
30 533
31 153
31 1629
31 1628
31 28
31 2
31 23
31 374
31 270
31 10
31 72
31 30
31 36
31 112
31 319
31 840
31 857
31 55
31 273
31 240
31 245
31 110
31 111
31 39
31 69
31 247
31 340
31 25
31 246
31 16
31 32
31 230
31 229
31 347
31 106
31 228
31 178
31 185
31 344
31 58
31 352
31 253
31 192
31 341
31 867
31 395
31 361
31 243
31 394
31 223
31 194
31 748
31 322
31 167
31 24
31 1532
31 354
31 239
31 49
31 9
31 244
31 491
31 560
31 29
31 57
31 33
31 34
31 255
31 73
31 37
31 151
31 276
31 350
31 249
31 694
31 35
31 118
31 27
31 411
31 349
31 360
31 375
31 1075
31 259
31 260
31 333
31 303
31 40
31 41
31 53
31 1384
31 561
31 453
31 688
31 454
31 992
31 854
31 54
31 856
31 214
31 1533
31 274
31 38
31 176
31 248
31 56
31 42
31 334
32 185
32 253
32 507
32 1702
32 247
32 1750
32 619
32 1046
32 868
32 31
32 617
32 340
32 925
32 243
32 698
32 343
32 2093
32 2092
32 230
32 227
32 237
32 344
32 472
32 226
32 1181
32 28
32 2
32 229
32 694
32 58
32 106
32 347
32 178
32 228
32 333
32 345
32 398
32 38
32 962
32 35
32 394
32 192
32 56
32 57
32 176
32 248
32 1707
32 614
32 350
32 329
32 552
32 1361
32 39
32 920
32 194
32 1786
32 30
32 349
32 348
32 322
32 112
32 110
32 26
32 1714
32 2094
32 957
32 2095
32 2096
32 2097
32 954
32 2098
32 132
32 598
32 235
32 597
32 923
32 2099
32 543
32 546
32 548
32 165
32 549
32 550
32 1172
32 1872
32 921
32 1409
32 395
32 352
32 928
32 389
32 55
32 111
32 44
32 516
32 351
32 232
32 234
32 233
32 363
32 594
32 924
32 1743
32 1065
32 2100
32 553
32 936
32 270
32 153
32 29
32 16
32 1289
32 49
32 593
32 184
32 346
32 554
32 300
32 2101
32 919
32 236
32 1161
32 917
32 1078
32 2102
32 2103
32 1362
32 749
32 551
32 600
32 361
32 599
32 72
32 353
32 1788
32 867
32 2104
32 69
32 370
32 746
32 522
32 524
32 523
32 354
32 413
32 390
32 1283
32 355
32 342
32 341
32 2105
32 2106
32 616
32 559
32 1820
32 1349
32 1045
32 1290
32 1257
32 2071
32 2072
32 52
32 2107
32 1456
32 1959
32 1752
32 800
32 397
32 990
32 1916
32 964
32 504
32 615
32 223
32 391
32 231
32 203
32 748
32 1698
32 244
32 576
32 1802
32 301
32 1351
32 175
32 9
32 965
32 995
32 2108
32 1350
32 1963
32 994
32 1669
32 1186
32 1715
32 1187
32 1386
32 23
32 2109
32 25
33 34
33 450
33 451
33 452
33 28
33 31
33 73
33 58
33 303
33 453
33 244
33 2
33 112
33 23
33 454
33 36
33 408
33 24
33 25
33 409
33 106
33 38
33 455
33 401
33 456
34 33
34 450
34 451
34 452
34 28
34 31
34 23
34 58
34 303
34 453
34 244
34 2
34 112
34 37
34 36
34 408
34 387
34 24
34 25
34 409
34 106
34 73
34 491
34 38
34 560
34 55
34 333
34 582
35 28
35 25
35 2
35 23
35 334
35 31
35 1046
35 72
35 953
35 246
35 175
35 229
35 32
35 247
35 58
35 340
35 178
35 600
35 394
35 549
35 352
35 176
35 361
35 248
35 24
35 821
35 205
35 112
35 9
35 73
35 403
35 928
35 244
35 1036
35 132
35 19
35 1451
35 367
35 1314
35 1458
35 598
35 37
35 3
35 68
35 1112
35 253
35 278
35 49
35 346
35 355
35 250
35 55
35 230
35 185
36 272
36 271
36 13
36 475
36 387
36 477
36 480
36 478
36 479
36 31
36 2
36 23
36 28
36 55
36 25
36 24
36 249
36 37
36 319
36 30
36 273
36 274
36 239
36 474
36 32
36 178
36 192
36 42
36 398
36 112
36 58
36 322
36 491
36 560
36 395
36 243
36 167
36 354
36 415
36 407
36 39
36 746
36 10
36 205
36 49
36 350
36 73
36 244
36 40
36 688
36 453
36 110
36 694
36 1302
36 72
36 34
36 408
36 16
36 333
36 1569
36 106
36 46
36 368
36 367
36 1445
36 1451
36 1441
36 1710
36 1440
36 35
36 421
36 549
36 925
36 138
36 821
36 151
36 33
36 928
36 228
36 248
36 250
36 153
36 43
36 26
36 673
37 23
37 24
37 176
37 248
37 253
37 243
37 361
37 56
37 57
37 421
37 319
37 422
37 270
37 153
37 254
37 423
37 413
37 25
37 424
37 425
37 426
37 427
37 428
37 429
37 430
37 431
37 432
37 433
37 733
37 259
37 260
37 791
37 792
37 795
37 608
37 10
37 515
37 513
37 521
37 794
37 103
37 796
37 797
37 798
37 799
37 408
37 43
37 28
37 2
37 31
37 73
37 40
37 354
37 112
37 110
37 178
37 228
37 415
37 407
37 329
37 1277
37 58
37 332
37 39
37 205
37 36
37 403
37 244
37 249
37 239
37 273
37 274
37 1249
37 402
37 9
37 194
37 192
37 155
37 55
37 395
37 414
37 72
37 404
37 1055
37 411
37 34
37 333
37 49
37 692
37 384
37 390
37 250
37 255
37 276
37 38
37 827
37 35
37 118
37 369
37 137
37 138
37 1172
37 821
37 1051
37 598
37 439
37 271
37 272
37 409
37 410
37 412
38 389
38 388
38 39
38 607
38 439
38 335
38 336
38 55
38 111
38 273
38 110
38 112
38 369
38 514
38 516
38 2
38 243
38 49
38 28
38 254
38 253
38 333
38 23
38 248
38 350
38 185
38 194
38 32
38 598
38 229
38 230
38 923
38 31
38 352
38 247
38 250
38 255
38 24
38 25
38 37
38 56
38 57
38 176
38 249
38 36
38 73
38 10
38 29
38 16
38 454
38 252
38 384
38 40
38 415
38 425
38 165
38 1349
38 694
38 379
38 258
38 50
38 263
38 266
38 265
38 58
38 237
38 924
38 244
39 335
39 336
39 38
39 439
39 388
39 389
39 333
39 10
39 270
39 69
39 153
39 28
39 23
39 31
39 55
39 40
39 106
39 1758
39 2
39 228
39 56
39 57
39 344
39 32
39 347
39 1289
39 185
39 354
39 25
39 112
39 24
39 49
39 239
39 263
39 250
39 50
39 261
39 265
39 258
39 176
39 249
39 110
39 246
39 454
39 254
39 253
39 252
39 255
39 36
39 30
39 395
39 167
39 37
39 248
39 425
39 361
39 43
39 58
39 178
39 72
39 2002
40 454
40 28
40 246
40 259
40 260
40 23
40 25
40 24
40 39
40 106
40 248
40 49
40 10
40 688
40 36
40 303
40 31
40 252
40 55
40 38
40 112
40 43
40 495
40 401
40 2
41 837
41 838
41 124
41 28
41 246
41 16
41 175
41 839
41 840
41 23
41 36
41 10
41 250
41 55
41 56
41 361
41 841
41 273
42 165
42 1763
42 1473
42 1762
42 43
42 23
42 28
42 925
42 24
42 25
42 112
42 58
42 614
42 36
42 31
42 398
42 167
42 176
42 354
42 30
42 39
42 800
42 746
42 361
42 350
42 404
42 2
42 35
42 26
42 244
42 411
42 73
42 405
42 13
42 16
42 827
42 406
42 37
42 413
42 412
42 390
42 56
42 57
42 415
42 1321
42 408
42 410
42 409
42 403
42 402
42 407
42 414
42 1764
43 1468
43 1469
43 1470
43 1471
43 37
43 23
43 28
43 42
43 16
43 36
43 24
43 411
43 25
43 154
43 354
43 415
43 407
43 39
43 31
43 178
43 10
43 355
43 404
43 244
43 49
43 239
43 403
43 495
43 397
43 30
43 73
43 2
43 990
43 388
43 38
43 299
43 1472
43 390
43 333
43 55
43 694
43 26
43 253
43 254
43 40
43 214
43 249
43 251
43 58
43 1473
43 1055
43 56
43 57
43 413
43 412
43 405
43 406
43 13
43 414
43 410
43 408
43 409
43 402
43 112
44 28
44 112
44 337
44 270
44 153
44 10
44 69
44 32
44 178
44 1046
44 247
44 340
44 38
44 698
44 58
44 9
44 106
44 411
44 72
44 24
44 25
44 228
44 46
44 1047
44 45
44 16
44 367
44 827
44 824
44 395
45 47
45 46
45 44
45 16
45 1047
45 1192
46 1866
46 178
46 1860
46 368
46 58
46 1047
46 367
46 1192
46 192
46 228
46 106
46 24
46 36
46 583
46 509
46 830
46 829
46 1442
46 2
46 627
46 57
46 56
46 828
46 1720
46 1377
46 1068
46 382
46 72
46 25
46 946
46 329
46 112
46 945
46 947
46 542
46 508
46 47
46 45
46 44
46 48
46 127
46 1506
46 1509
46 194
46 614
46 2189
46 398
46 1748
46 1993
46 1445
47 48
47 70
47 71
47 45
47 46
47 58
47 44
47 16
47 72
47 73
48 70
48 47
48 71
48 333
48 46
48 45
48 16
49 239
49 23
49 240
49 241
49 242
49 28
49 39
49 243
49 2
49 244
49 58
49 245
49 246
49 40
49 214
49 31
49 41
49 38
49 32
49 229
49 247
49 69
49 248
49 24
49 25
49 10
49 176
49 249
49 36
49 73
49 37
49 110
49 250
49 55
49 9
49 251
49 252
49 29
49 253
49 254
49 255
49 56
49 256
49 257
49 43
49 112
49 258
49 259
49 260
49 57
49 261
49 262
49 263
49 264
49 265
49 50
49 178
49 266
49 267
49 268
49 269
49 270
49 153
49 271
49 272
49 273
49 274
49 33
49 175
50 35
50 2
50 23
50 254
50 253
50 17
50 18
50 19
50 27
50 49
50 28
50 270
50 153
50 384
50 255
50 421
50 16
50 250
50 38
50 39
50 258
50 263
50 261
50 265
51 3
51 20
51 27
51 60
51 43
51 436
51 106
52 1128
52 16
52 1129
52 23
52 28
52 1130
52 685
53 2336
53 436
53 1196
53 28
53 72
53 2
53 40
53 23
53 25
53 110
53 1384
53 561
53 73
54 857
54 28
54 53
54 1566
54 40
54 2
54 246
54 72
55 111
55 28
55 110
55 379
55 31
55 514
55 516
55 389
55 273
55 369
55 274
55 388
55 38
55 112
55 513
55 510
55 515
55 10
55 360
55 511
55 512
55 239
55 272
55 271
55 26
55 23
55 248
55 37
55 257
55 36
55 250
55 9
55 2
55 39
55 24
55 25
55 990
55 333
55 73
55 991
55 56
55 694
55 240
55 437
55 375
55 214
55 245
55 840
55 69
55 387
55 58
55 34
55 303
55 454
55 992
55 35
55 176
56 430
56 57
56 23
56 55
56 176
56 248
56 253
56 243
56 361
56 24
56 37
56 254
56 423
56 413
56 25
56 424
56 425
56 426
56 427
56 428
56 429
56 431
56 432
56 421
56 319
56 422
56 433
56 733
56 260
56 259
56 791
56 792
56 795
56 608
56 521
56 794
56 103
56 796
56 797
56 798
56 799
56 1327
56 28
56 229
56 384
56 390
56 412
56 489
56 411
56 228
56 370
56 194
56 32
56 746
56 353
56 472
56 192
56 965
56 167
56 112
56 154
56 354
56 10
56 69
56 386
56 175
56 2
56 355
56 414
56 244
56 153
56 249
56 156
56 106
56 255
56 49
56 31
56 693
56 250
56 252
56 270
56 26
56 41
56 178
56 36
56 73
56 43
56 42
56 404
56 405
56 13
56 407
56 406
56 403
56 410
56 408
56 409
56 402
56 39
56 38
57 56
57 248
57 23
57 176
57 253
57 243
57 361
57 24
57 37
57 413
57 430
57 624
57 254
57 423
57 25
57 424
57 425
57 426
57 427
57 428
57 429
57 431
57 432
57 421
57 319
57 422
57 433
57 733
57 260
57 259
57 791
57 792
57 795
57 608
57 521
57 794
57 103
57 796
57 797
57 798
57 799
57 28
57 384
57 390
57 412
57 489
57 228
57 746
57 370
57 194
57 32
57 353
57 472
57 229
57 965
57 58
57 167
57 112
57 154
57 354
57 69
57 175
57 386
57 2
57 1832
57 355
57 249
57 156
57 192
57 255
57 39
57 31
57 693
57 250
57 303
57 36
57 46
57 1047
57 1192
57 270
57 244
57 106
57 10
57 178
57 411
57 73
57 43
57 42
57 404
57 405
57 13
57 407
57 406
57 403
57 410
57 408
57 409
57 402
57 414
57 55
57 38
57 49
58 1561
58 1665
58 1666
58 1667
58 1664
58 1668
58 2078
58 2079
58 2076
58 2077
58 2234
58 2081
58 383
58 28
58 2
58 244
58 33
58 34
58 334
58 350
58 1558
58 3
58 4
58 325
58 27
58 213
58 371
58 320
58 63
58 326
58 44
58 261
58 153
58 270
58 1559
58 1560
58 340
58 341
58 23
58 178
58 32
58 347
58 185
58 253
58 322
58 489
58 167
58 25
58 24
58 36
58 26
58 354
58 37
58 10
58 30
58 800
58 746
58 112
58 243
58 175
58 31
58 239
58 49
58 9
58 355
58 192
58 626
58 1502
58 1959
58 411
58 1299
58 228
58 39
58 38
58 106
58 454
58 176
58 248
58 333
58 72
58 255
58 250
58 42
58 821
58 55
58 582
58 583
58 456
58 956
58 138
58 46
58 1192
58 1047
58 828
58 829
58 830
58 367
58 509
58 368
58 1228
58 1221
58 1068
58 542
58 439
58 421
58 319
58 118
58 16
58 265
58 714
58 131
58 431
58 137
58 614
58 329
58 69
58 346
58 438
58 369
58 1065
58 924
58 370
58 1780
58 911
58 432
58 226
58 395
58 2285
58 407
58 374
58 348
58 491
58 560
58 154
58 56
58 57
58 361
58 251
58 2250
58 1172
58 103
59 27
59 60
59 61
59 62
59 3
59 63
59 64
59 20
59 2
59 65
59 66
59 67
59 68
59 69
59 28
60 61
60 3
60 673
60 2323
60 2324
60 63
60 320
60 1874
60 410
60 122
60 67
60 20
60 27
60 73
60 674
60 675
60 326
60 68
60 62
60 672
60 1695
60 4
60 848
60 249
60 321
60 850
60 849
60 325
60 2
60 213
60 64
60 322
60 978
61 60
61 63
61 1535
61 3
61 1874
61 410
61 676
61 27
61 67
61 1245
61 1244
61 1246
61 59
61 1695
61 20
61 65
61 322
61 450
61 2
61 321
61 4
61 326
61 327
61 51
61 62
61 1090
62 1877
62 1876
62 27
62 20
62 3
62 60
62 68
62 361
62 49
62 239
62 694
63 282
63 1536
63 1537
63 1535
63 61
63 60
63 3
63 1534
63 2110
63 676
63 2111
63 27
63 326
63 1846
63 68
63 62
63 1245
63 1695
63 2112
63 321
63 322
63 4
63 849
63 850
63 851
63 1011
63 325
63 320
63 2113
63 1729
63 51
63 2
63 1732
63 327
63 2114
63 2115
63 65
63 672
63 81
63 332
64 27
64 68
64 59
64 3
64 213
64 2
65 1366
65 1566
65 516
65 1567
65 240
65 617
65 27
65 20
65 2
65 59
65 61
65 60
65 249
65 1227
65 1226
65 3
65 4
65 450
65 327
65 371
65 1824
65 63
65 55
65 28
66 27
66 20
66 2
67 845
67 754
67 20
67 842
67 843
67 846
67 60
67 3
67 909
67 847
67 672
67 27
67 244
67 28
68 1206
68 27
68 2151
68 3
68 62
68 60
68 672
68 63
68 20
68 64
68 59
68 35
68 1822
68 753
68 2357
69 23
69 28
69 153
69 10
69 1697
69 1696
69 270
69 39
69 1550
69 31
69 58
69 2
69 340
69 247
69 56
69 110
69 303
69 361
69 24
69 552
69 1361
69 32
69 230
69 253
69 560
69 25
69 178
69 57
69 278
69 249
69 277
69 239
69 257
69 49
69 355
69 375
69 111
69 694
69 401
69 43
69 990
69 333
69 26
69 55
69 36
69 246
69 167
69 439
69 389
69 935
69 228
69 29
70 48
70 47
70 71
71 48
71 70
71 47
72 1055
72 25
72 2027
72 2028
72 2
72 28
72 23
72 58
72 250
72 112
72 110
72 248
72 176
72 24
72 244
72 598
72 31
72 153
72 32
72 543
72 698
72 303
72 355
72 393
72 106
72 350
72 36
72 46
72 1425
72 1422
72 178
72 69
72 359
72 299
72 911
72 1632
72 2029
72 854
72 856
72 53
72 561
72 37
72 1051
72 451
72 452
72 165
72 228
72 137
72 158
72 97
72 2030
73 928
73 2219
73 673
73 674
73 675
73 23
73 28
73 31
73 26
73 3
73 37
73 422
73 30
73 397
73 36
73 24
73 25
73 35
73 403
73 10
73 244
73 72
73 1302
73 1633
73 414
73 58
73 2
73 106
73 253
73 254
73 33
73 34
73 178
73 694
73 43
73 990
73 55
73 405
73 42
73 248
73 46
73 828
73 709
73 1047
73 1192
73 2163
73 830
73 827
73 1306
73 137
73 1549
73 255
73 9
73 1533
73 214
73 60
73 151
73 424
73 409
73 410
73 408
73 402
73 13
73 407
73 406
73 56
73 57
73 413
73 411
73 404
73 412
73 390
73 495
73 415
73 1321
73 38
73 112
73 924
74 47
74 46
74 75
75 74
75 46
75 1745
76 77
76 78
77 1264
77 76
78 76
78 753
79 80
79 81
79 2
80 79
80 81
81 935
81 248
81 253
81 118
81 431
81 25
81 24
81 135
82 83
82 84
82 3
83 1885
83 82
83 216
83 189
83 951
83 1029
83 285
83 84
83 217
83 1258
84 28
84 83
84 189
84 139
84 23
84 1700
84 1777
84 935
85 86
86 85
86 770
87 88
87 89
87 90
87 91
87 92
87 93
87 94
87 95
87 23
87 96
88 89
88 90
88 91
88 1274
88 87
88 706
88 120
88 270
88 23
88 421
88 319
88 422
88 94
88 95
89 2
89 251
89 374
89 88
89 90
89 91
89 93
89 1274
89 87
89 706
89 120
89 94
89 95
89 270
89 23
89 421
89 319
89 422
89 92
90 2
90 251
90 374
90 88
90 89
90 91
90 1274
90 87
90 94
90 95
91 93
91 89
91 88
91 90
91 92
91 1274
91 87
91 706
91 120
91 94
91 95
91 270
91 23
91 421
91 319
91 422
92 681
92 682
92 93
92 91
92 1274
92 87
92 706
92 120
92 94
92 95
92 270
92 23
92 421
92 319
92 422
92 612
92 2
92 460
92 89
92 88
92 25
92 27
92 132
93 92
93 91
93 89
93 1274
93 87
93 706
93 120
93 94
93 95
93 270
93 23
93 421
93 319
93 422
93 681
93 682
94 2
94 251
94 374
94 121
94 23
94 95
94 519
94 520
94 511
94 517
94 518
94 512
94 513
94 510
94 514
94 704
94 88
94 92
94 93
94 89
94 91
94 90
94 1274
94 87
94 706
94 120
94 1275
94 270
94 153
94 37
94 421
94 319
94 422
94 55
94 389
94 111
94 10
94 360
94 28
95 2
95 251
95 374
95 94
95 121
95 511
95 517
95 518
95 512
95 513
95 510
95 514
95 704
95 519
95 520
95 88
95 92
95 93
95 89
95 91
95 1274
95 87
95 706
95 120
95 270
95 23
95 421
95 319
95 422
95 1275
95 10
95 360
95 55
95 389
95 111
95 38
95 439
95 112
95 118
95 176
95 36
95 480
95 477
96 1264
97 98
97 99
97 100
97 101
97 102
97 103
97 104
97 105
97 106
97 107
97 72
98 97
98 99
98 108
99 97
99 98
100 171
100 151
100 103
100 104
100 124
100 101
100 572
100 1113
100 102
100 191
100 568
100 644
100 837
100 1268
100 1640
100 2199
100 187
100 208
100 571
100 170
100 190
100 192
100 1523
100 158
100 797
100 2273
100 370
100 669
100 833
100 664
100 883
100 1270
100 2075
100 699
100 1479
100 306
100 193
100 570
100 1639
100 1269
100 695
100 612
100 807
100 533
100 97
100 418
100 107
100 2329
100 2439
100 666
100 1294
100 1676
100 1216
100 1218
100 112
100 1481
100 1482
100 614
100 287
100 671
100 670
100 668
101 571
101 1113
101 572
101 124
101 100
101 104
101 1639
101 149
101 2403
101 837
101 1640
101 979
101 170
101 102
101 191
101 103
101 533
101 158
101 97
101 418
101 1268
101 28
102 533
102 534
102 124
102 170
102 171
102 103
102 100
102 97
102 191
102 208
102 101
102 713
102 711
102 712
102 1415
102 836
102 168
102 1416
102 665
103 796
103 797
103 798
103 799
103 2265
103 1479
103 100
103 833
103 1271
103 151
103 533
103 534
103 418
103 104
103 97
103 191
103 102
103 101
103 253
103 2
103 58
104 1639
104 100
104 101
104 1640
104 151
104 979
104 1641
104 1268
104 837
104 103
104 807
104 124
104 418
104 158
104 572
104 1577
104 669
104 1583
104 81
105 942
105 614
105 32
105 613
105 97
106 1768
106 350
106 28
106 244
106 924
106 943
106 58
106 31
106 56
106 42
106 153
106 10
106 270
106 39
106 69
106 340
106 32
106 230
106 1743
106 23
106 2
106 36
106 24
106 167
106 25
106 354
106 228
106 415
106 407
106 614
106 391
106 395
106 178
106 44
106 9
106 399
106 398
106 239
106 49
106 355
106 412
106 57
106 72
106 73
106 33
106 34
106 303
106 40
106 137
106 37
106 112
106 990
106 165
106 249
106 43
106 348
106 97
106 276
107 276
107 1752
107 1172
107 1162
107 1163
107 181
107 1090
107 1091
107 1164
107 1165
107 1166
107 2329
107 2330
107 2258
107 664
107 357
107 359
107 1075
107 28
107 369
107 286
107 1406
107 409
107 2439
107 191
107 100
107 329
107 37
107 165
107 994
107 332
107 360
107 379
107 29
107 244
107 23
107 24
107 55
107 25
107 31
107 2
107 1261
107 97
108 97
108 98
109 110
109 111
109 112
109 113
109 114
109 115
109 116
109 117
109 118
109 72
109 119
109 120
109 23
109 94
109 121
110 112
110 115
110 109
110 111
110 514
110 516
110 55
110 389
110 273
110 388
110 369
110 38
110 435
110 118
110 113
110 114
110 116
110 117
110 28
110 176
110 119
110 72
110 153
110 31
110 2
110 334
110 26
110 257
110 107
110 30
110 23
110 69
110 24
110 246
110 529
110 530
110 32
110 347
110 230
110 44
110 352
110 749
110 2068
110 2069
110 37
110 614
110 178
110 25
110 453
110 10
110 9
110 859
110 258
110 244
110 274
110 41
110 40
110 53
110 857
110 688
110 1384
110 840
110 365
110 36
110 39
110 333
110 990
110 249
110 436
110 319
110 49
110 239
110 1095
110 248
110 387
110 303
110 240
110 245
110 617
111 55
111 379
111 514
111 516
111 389
111 110
111 112
111 435
111 118
111 109
111 273
111 388
111 369
111 38
111 511
111 512
111 513
111 510
111 515
111 10
111 360
111 28
111 23
111 274
111 9
111 244
111 31
111 2
111 401
111 39
111 24
111 25
111 333
111 1569
111 43
111 990
111 694
111 73
111 26
111 491
111 248
111 178
112 110
112 111
112 435
112 118
112 677
112 109
112 514
112 516
112 55
112 389
112 273
112 388
112 369
112 38
112 113
112 114
112 115
112 116
112 117
112 821
112 28
112 491
112 560
112 23
112 2
112 31
112 10
112 436
112 32
112 230
112 26
112 550
112 178
112 36
112 24
112 386
112 58
112 25
112 167
112 354
112 37
112 154
112 57
112 176
112 350
112 395
112 9
112 355
112 35
112 49
112 239
112 56
112 244
112 405
112 248
112 153
112 73
112 1051
112 192
112 156
112 333
112 1563
112 329
112 401
112 454
112 40
112 990
112 319
112 431
112 72
112 44
112 694
112 271
112 272
112 438
112 69
112 270
112 95
112 361
112 107
112 33
112 34
112 249
112 39
112 106
112 228
112 151
112 718
112 1478
112 360
112 157
112 1564
113 114
113 115
113 116
113 117
113 109
113 110
113 112
113 118
113 663
113 755
114 113
114 115
114 116
114 117
114 109
114 110
114 112
114 118
114 23
115 110
115 112
115 660
115 113
115 114
115 116
115 117
115 109
115 118
115 23
115 1147
116 113
116 114
116 115
116 117
116 109
116 110
116 112
116 118
116 23
116 1147
117 112
117 608
117 782
117 113
117 114
117 115
117 116
117 109
117 110
117 118
117 23
117 1147
117 9
118 431
118 23
118 112
118 435
118 110
118 111
118 677
118 820
118 117
118 116
118 115
118 114
118 113
118 319
118 28
118 24
118 346
118 355
118 369
118 36
118 244
118 31
118 25
118 438
118 270
118 153
118 37
118 132
118 432
118 421
118 422
118 151
118 439
118 1787
119 109
119 2048
119 1725
120 23
120 706
120 1733
120 1275
120 270
120 153
120 1781
120 88
120 92
120 93
120 89
120 91
120 94
120 121
120 95
120 421
120 319
120 422
120 10
120 510
120 39
120 109
120 112
120 111
121 519
121 520
121 511
121 517
121 518
121 94
121 95
121 512
121 513
121 510
121 514
121 704
121 719
121 720
121 716
121 721
121 724
121 722
121 725
121 717
121 726
121 727
121 480
121 521
121 723
121 738
121 739
121 151
121 718
121 72
121 10
121 360
121 55
121 389
121 111
121 112
121 38
121 118
121 439
121 270
121 23
121 729
121 120
121 1275
122 60
122 63
122 61
123 124
123 125
123 100
124 838
124 837
124 41
124 101
124 1113
124 572
124 883
124 104
124 1640
124 100
124 171
124 170
124 208
124 571
124 807
124 306
125 123
125 100
126 127
126 128
126 129
126 130
127 1507
127 1508
127 1506
127 1509
127 1510
127 1511
127 1512
127 1513
127 1514
127 46
127 106
127 23
128 130
129 127
129 130
129 126
129 128
130 128
131 2
131 58
131 132
132 35
132 27
132 880
132 23
132 50
132 384
132 165
132 28
132 249
132 2
132 18
132 16
132 19
132 17
132 25
132 153
132 24
132 953
132 954
132 32
132 390
132 955
133 46
133 134
134 46
134 133
135 81
136 137
136 138
136 139
136 140
136 141
136 142
136 143
136 144
136 145
137 1329
137 1330
137 1331
137 1332
137 1333
137 1334
137 1335
137 1336
137 1337
137 58
137 72
137 1338
137 1032
137 25
137 215
137 24
137 23
137 138
137 573
138 141
138 142
138 139
138 136
138 140
138 144
138 143
138 1736
138 1735
138 2
138 31
138 34
138 33
138 58
138 228
138 24
138 1258
138 23
138 84
138 137
138 1777
138 145
138 304
138 1698
138 573
138 1427
138 574
139 143
139 144
139 138
139 136
139 140
139 141
139 142
139 145
139 28
139 84
139 23
140 137
140 138
140 139
140 136
140 141
140 142
140 143
140 144
140 145
141 142
141 138
141 139
141 136
141 140
142 141
142 138
142 139
142 136
142 140
143 144
143 139
143 138
143 136
143 140
143 28
144 143
144 139
144 138
144 136
144 140
144 28
144 24
144 84
145 702
145 700
145 701
145 820
145 677
145 435
145 118
145 1806
145 138
145 25
145 23
145 137
145 139
146 147
146 148
146 149
146 150
146 151
146 100
147 148
147 146
147 149
148 147
148 146
148 149
149 147
149 148
149 146
149 101
149 100
150 833
150 100
150 146
150 151
151 728
151 729
151 730
151 718
151 719
151 720
151 716
151 721
151 519
151 724
151 722
151 725
151 520
151 717
151 726
151 727
151 480
151 521
151 723
151 738
151 739
151 511
151 517
151 518
151 121
151 731
151 23
151 101
151 418
151 10
151 100
151 103
151 104
151 2388
151 699
151 1676
151 833
151 1640
151 1577
151 334
151 2
151 176
151 249
151 72
151 24
151 25
151 28
151 31
151 29
151 9
151 178
151 112
151 695
151 670
151 1269
151 1085
152 23
152 154
152 155
152 156
152 157
153 422
153 1572
153 1573
153 374
153 270
153 23
153 120
153 1275
153 251
153 386
153 37
153 421
153 319
153 2
153 72
153 31
153 10
153 39
153 69
153 28
153 694
153 857
153 840
153 30
153 132
153 228
153 178
153 112
153 439
153 50
153 262
153 111
153 821
153 254
153 395
153 404
153 13
153 431
153 38
153 27
154 718
154 1779
154 1778
154 28
154 110
154 31
154 489
154 23
154 112
154 25
154 56
154 57
154 24
154 491
154 560
154 10
154 58
154 413
154 398
154 157
154 937
154 1694
154 156
155 1228
155 368
155 1221
155 31
155 152
155 154
155 390
155 2
155 355
155 24
155 244
155 23
155 10
155 37
155 36
155 43
156 1899
156 1900
156 1901
156 411
156 398
156 154
156 491
156 560
156 56
156 57
156 23
156 24
156 25
156 395
156 112
156 1902
156 618
157 1022
157 23
157 112
157 152
157 154
157 360
158 159
158 160
158 161
158 100
158 101
158 104
158 31
158 162
158 72
159 158
159 160
160 158
160 159
161 158
161 163
162 158
163 158
163 161
164 165
165 100
165 1396
165 1397
165 203
165 23
165 1113
165 1398
165 164
165 101
165 270
165 153
165 69
165 39
165 10
165 548
165 167
165 32
165 185
165 38
165 243
165 229
165 614
165 253
165 230
165 192
165 247
165 347
165 194
165 49
165 25
165 228
165 58
165 24
165 244
165 1068
165 495
165 42
165 1399
165 1400
165 106
165 800
166 167
166 28
167 28
167 23
167 178
167 58
167 230
167 32
167 748
167 166
167 342
167 548
167 165
167 270
167 2
167 31
167 25
167 112
167 397
167 24
167 244
167 55
167 354
167 153
167 239
167 69
167 106
167 350
167 111
167 39
167 900
167 2184
168 169
168 170
168 171
169 168
169 170
169 100
170 2423
170 124
170 712
170 101
170 100
170 208
170 102
170 836
170 187
170 835
170 168
170 169
170 1416
170 1415
170 713
170 711
170 533
170 171
171 100
171 1416
171 102
171 1216
171 1218
171 533
172 173
172 174
173 172
173 174
173 124
173 101
173 100
174 173
174 172
174 124
175 839
175 41
175 801
175 23
175 176
175 28
175 257
175 56
175 57
175 2200
175 390
175 246
175 205
175 355
175 9
175 49
175 35
175 239
175 24
175 25
175 2
176 35
176 608
176 521
176 733
176 791
176 792
176 248
176 253
176 243
176 361
176 56
176 57
176 24
176 37
176 425
176 426
176 427
176 428
176 429
176 430
176 431
176 432
176 421
176 319
176 422
176 433
176 480
176 723
176 477
176 732
176 793
176 478
176 479
176 734
176 735
176 794
176 260
176 259
176 254
176 423
176 413
176 25
176 23
176 424
176 795
176 716
176 722
176 103
176 796
176 797
176 798
176 799
176 28
176 255
176 249
176 800
176 10
176 515
176 513
176 696
176 110
176 32
176 354
176 239
176 378
176 175
176 801
176 9
176 2
176 386
176 802
176 31
176 694
176 178
176 112
176 39
176 333
176 49
176 252
176 803
176 250
176 299
176 297
176 384
176 55
176 804
176 747
176 251
176 805
176 481
176 385
176 69
176 38
176 439
176 257
177 1076
177 25
177 55
177 23
177 24
177 28
177 990
177 214
178 382
178 110
178 1799
178 1798
178 1800
178 2134
178 348
178 28
178 2
178 23
178 329
178 394
178 319
178 24
178 25
178 334
178 248
178 372
178 270
178 153
178 58
178 374
178 251
178 32
178 347
178 340
178 185
178 386
178 322
178 167
178 243
178 354
178 9
178 112
178 453
178 49
178 239
178 396
178 205
178 246
178 376
178 377
178 244
178 390
178 30
178 10
178 72
178 31
178 454
178 254
178 56
178 57
178 29
178 176
178 937
178 388
178 389
178 253
178 46
178 368
178 1047
178 828
178 829
178 1068
178 228
178 1680
178 1314
178 73
178 36
178 1712
178 35
178 107
178 397
178 600
178 55
178 900
178 1772
178 2240
178 69
178 431
178 432
178 333
178 37
178 361
178 39
178 38
178 261
178 60
178 1525
179 180
179 181
179 182
180 179
180 1264
181 1888
181 1163
181 182
181 1090
181 1091
181 1164
181 1165
181 1890
181 1092
181 1093
181 1261
181 1162
181 1889
181 107
181 682
181 286
181 1406
181 409
181 1094
181 1088
181 2082
181 2083
181 2084
181 179
182 1890
182 181
182 1090
182 1091
182 1164
182 1165
182 1888
182 1163
182 1092
182 1093
182 1261
182 1162
182 1094
182 179
183 184
184 23
184 32
184 226
184 2102
184 340
184 49
184 354
184 271
184 272
184 25
184 24
184 37
184 859
184 453
185 550
185 961
185 962
185 867
185 963
185 32
185 1289
185 1714
185 344
185 347
185 253
185 1707
185 1065
185 614
185 329
185 31
185 58
185 2
185 1702
185 921
185 395
185 38
185 230
185 247
185 106
185 472
185 49
185 922
185 237
185 355
185 235
185 507
185 229
185 504
185 226
185 559
185 223
185 228
185 227
185 923
185 44
185 1351
185 927
185 236
185 602
185 597
185 349
185 322
185 333
185 243
185 23
186 187
187 835
187 836
188 83
188 189
189 83
189 951
189 1030
190 191
190 100
190 192
190 151
190 193
190 194
191 305
191 193
191 306
191 304
191 100
191 124
191 665
191 664
191 190
191 2199
191 418
191 1523
191 102
191 192
191 572
191 571
191 1269
191 1268
191 837
191 883
191 1270
191 2075
191 1113
191 107
191 2439
191 666
191 2329
191 807
191 112
191 101
192 228
192 925
192 2
192 56
192 57
192 244
192 28
192 1950
192 669
192 1086
192 1085
192 1084
192 100
192 190
192 32
192 165
192 31
192 965
192 1065
192 614
192 361
192 36
192 58
192 23
192 25
192 24
192 167
192 329
192 407
192 800
192 10
192 1066
192 411
192 73
192 72
192 1055
192 379
192 112
192 26
192 1047
192 1192
192 46
192 1442
192 368
192 107
192 9
192 341
193 305
193 306
193 191
193 304
193 101
193 124
193 665
193 151
193 100
193 664
194 32
194 228
194 28
194 2
194 550
194 229
194 185
194 548
194 237
194 2073
194 394
194 56
194 57
194 340
194 165
194 223
194 347
194 230
194 749
194 23
194 24
194 25
194 322
194 112
194 31
194 354
194 244
194 13
194 106
194 34
194 33
194 1047
194 1192
194 46
194 1235
194 270
194 153
194 37
194 226
194 1628
194 190
195 196
195 197
195 198
195 199
196 198
196 197
196 195
196 199
197 198
197 196
197 195
197 199
197 1960
197 1987
197 1065
197 367
197 46
198 196
198 197
198 195
198 199
198 1960
199 195
199 197
199 196
199 198
199 1960
200 201
200 202
200 203
201 785
201 200
201 370
201 786
201 787
201 788
201 746
201 2
201 27
201 28
201 23
201 663
202 100
202 1995
203 1622
203 165
203 1397
203 749
203 684
204 205
204 73
205 24
205 56
205 57
205 35
205 175
205 2533
205 2534
205 1823
205 25
205 2535
205 28
205 355
205 254
205 253
205 27
205 366
205 204
205 246
205 23
205 694
205 257
205 239
205 2
205 49
205 2419
205 928
205 37
205 39
205 2404
205 1191
205 1192
205 421
205 319
206 207
206 208
206 209
206 210
207 208
207 206
207 100
207 908
207 907
208 210
208 209
208 934
208 571
208 124
208 1583
208 2441
208 1026
208 1027
208 206
208 207
208 2387
208 100
209 210
209 208
209 207
209 206
210 209
210 208
210 207
210 206
211 212
211 213
211 214
211 215
211 124
212 211
212 213
212 214
212 215
213 212
213 211
213 214
213 215
213 769
213 64
213 320
213 3
213 4
213 2
213 60
213 249
213 63
213 321
213 58
213 9
213 257
213 255
213 2160
214 213
214 215
214 28
214 262
214 246
214 25
214 250
214 937
214 23
214 56
214 252
214 301
214 1533
214 928
214 73
214 55
214 495
214 43
214 40
214 24
214 990
215 214
215 213
215 212
215 211
215 137
216 217
216 83
217 216
217 83
218 219
218 23
218 2
218 28
218 58
218 220
218 221
218 222
219 218
220 23
220 2
220 24
220 28
220 635
220 636
220 637
220 638
220 218
220 221
220 222
221 350
221 354
221 31
221 23
221 491
221 218
221 220
221 222
222 31
222 2
222 23
222 218
222 220
222 221
223 32
223 224
223 225
223 2
223 226
223 227
223 31
223 194
223 228
223 229
223 230
223 178
223 231
223 232
223 233
223 234
223 235
223 236
223 237
223 238
224 223
225 223
225 762
226 352
226 2456
226 2102
226 2457
226 32
226 184
226 28
226 394
226 552
226 1361
226 230
226 58
226 185
226 228
226 694
226 354
226 507
226 924
226 229
226 247
226 340
226 923
226 237
226 243
226 24
226 23
226 25
226 38
227 865
227 866
227 32
227 352
227 472
227 867
227 614
227 353
227 228
227 230
227 868
227 247
227 192
227 229
227 226
227 31
227 869
227 870
227 871
227 872
227 165
227 106
228 192
228 194
228 244
228 58
228 55
228 696
228 2
228 270
228 10
228 39
228 69
228 31
228 32
228 340
228 178
228 185
228 38
228 614
228 352
228 35
228 56
228 57
228 223
228 230
228 23
228 24
228 167
228 112
228 25
228 36
228 322
228 243
228 176
228 329
228 37
228 350
228 246
228 348
228 175
228 257
228 49
228 239
228 355
228 28
228 403
228 402
228 9
228 361
228 43
228 415
228 495
228 424
228 390
228 395
228 491
228 411
228 72
228 33
228 34
228 73
228 138
228 137
228 46
228 367
228 44
228 746
228 747
228 247
229 165
229 2351
229 2350
229 2352
229 2349
229 2426
229 812
229 253
229 247
229 32
229 230
229 31
229 228
229 185
229 347
229 58
229 2427
229 38
229 178
229 44
229 340
229 352
229 237
229 243
229 350
229 394
229 73
229 2
229 923
229 25
229 23
230 32
230 2274
230 351
230 1349
230 28
230 347
230 58
230 229
230 340
230 106
230 31
230 228
230 185
230 352
230 178
230 552
230 1361
230 614
230 1707
230 350
230 550
230 237
230 226
230 35
230 921
230 2
230 243
230 600
230 253
230 867
230 353
230 227
230 472
230 192
230 341
230 925
230 395
230 926
230 247
230 559
230 344
230 554
230 244
230 16
230 923
230 24
230 23
230 25
230 248
230 112
230 110
230 270
231 32
232 28
232 233
232 234
232 32
232 550
232 347
232 31
232 229
232 243
232 253
233 28
233 232
233 234
233 32
233 31
233 978
234 1233
234 1234
234 28
234 32
234 232
234 228
235 1519
235 1520
235 1521
235 38
235 230
235 32
235 247
235 355
235 550
235 867
235 229
235 223
236 917
236 918
236 237
236 32
236 919
236 345
236 929
236 28
236 38
236 576
236 340
236 342
236 185
236 923
236 223
236 507
236 352
237 917
237 918
237 919
237 345
237 236
237 32
237 550
237 28
237 333
237 920
237 349
237 229
237 352
237 23
237 347
237 253
237 921
237 2
237 247
237 394
237 243
237 185
237 922
237 354
237 507
237 226
237 600
237 178
237 923
237 58
237 472
237 867
237 924
237 925
237 341
237 746
237 106
237 344
237 192
237 235
237 38
237 227
237 395
237 31
237 926
237 230
237 24
237 25
237 228
237 927
237 223
237 353
237 928
237 165
237 549
237 13
237 405
238 223
239 10
239 49
239 257
239 417
239 732
239 734
239 735
239 28
239 2
239 23
239 58
239 31
239 272
239 271
239 355
239 9
239 360
239 110
239 55
239 273
239 274
239 35
239 378
239 278
239 69
239 24
239 404
239 178
239 36
239 26
239 205
239 254
239 375
239 112
239 43
239 27
239 246
239 857
239 214
239 240
239 245
239 153
239 935
239 723
239 511
239 480
239 39
239 244
240 1366
240 65
240 516
240 1566
240 1567
240 617
240 28
240 246
240 49
240 10
240 31
240 245
240 840
240 857
240 55
240 389
240 111
240 38
241 49
241 242
242 49
242 241
243 608
243 521
243 794
243 733
243 260
243 259
243 791
243 792
243 795
243 176
243 248
243 253
243 361
243 56
243 57
243 24
243 37
243 425
243 426
243 427
243 428
243 429
243 430
243 431
243 432
243 421
243 319
243 422
243 433
243 254
243 423
243 413
243 25
243 23
243 424
243 103
243 796
243 797
243 798
243 799
243 28
243 40
243 38
243 32
243 600
243 178
243 229
243 185
243 504
243 614
243 340
243 341
243 489
243 1272
243 2
243 36
243 72
243 249
243 55
243 35
243 137
243 348
243 1273
243 39
243 49
243 250
243 58
243 613
244 1527
244 1528
244 1529
244 28
244 9
244 255
244 252
244 2
244 694
244 72
244 10
244 32
244 576
244 559
244 554
244 230
244 340
244 749
244 39
244 23
244 25
244 228
244 1530
244 24
244 43
244 495
244 361
244 30
244 106
244 58
244 57
244 56
244 112
244 397
244 402
244 1301
244 192
244 178
244 396
244 37
244 36
244 73
244 31
244 386
244 395
244 444
244 303
244 49
244 29
244 1075
244 332
244 928
244 301
244 250
244 453
244 319
244 118
244 355
244 373
244 107
244 1531
244 266
244 413
244 176
244 821
244 1532
244 491
244 560
244 156
244 155
244 110
244 350
244 405
244 407
244 406
244 13
244 403
244 412
244 411
244 408
244 409
244 410
244 414
244 441
244 302
244 214
244 69
244 35
244 55
244 1302
244 356
244 65
244 67
244 1533
244 239
245 28
245 10
245 31
245 840
245 857
245 240
246 10
246 360
246 39
246 28
246 205
246 31
246 40
246 49
246 240
246 214
246 857
246 41
246 239
246 348
246 23
246 2
246 178
246 391
246 24
246 25
246 69
246 1589
246 55
246 303
246 257
246 110
246 112
246 271
246 272
247 2374
247 32
247 341
247 2
247 229
247 178
247 39
247 69
247 10
247 270
247 106
247 398
247 394
247 31
247 342
247 340
247 352
247 185
247 230
247 550
247 253
247 1046
247 1349
247 29
247 2104
247 347
247 361
247 192
247 49
247 559
247 237
247 58
247 44
247 228
247 334
247 72
247 350
247 111
247 926
248 176
248 428
248 253
248 794
248 260
248 259
248 791
248 792
248 243
248 361
248 56
248 57
248 24
248 254
248 423
248 413
248 25
248 23
248 424
248 425
248 426
248 427
248 429
248 430
248 431
248 432
248 421
248 319
248 422
248 433
248 608
248 521
248 733
248 795
248 740
248 10
248 440
248 793
248 1749
248 1523
248 1407
248 37
248 28
248 55
248 800
248 696
248 39
248 40
248 251
248 178
248 110
248 58
248 2
248 386
248 35
248 372
248 205
248 346
248 355
248 49
248 258
248 249
248 255
248 72
248 38
248 384
248 804
248 747
248 689
248 16
248 73
248 827
248 112
248 374
248 549
248 333
248 250
248 31
248 36
249 132
249 20
249 3
249 28
249 278
249 176
249 36
249 1172
249 276
249 848
249 27
249 846
249 852
249 321
249 63
249 325
249 60
249 4
249 320
249 213
249 64
249 2
249 23
249 69
249 277
249 257
249 239
249 355
249 802
249 248
249 401
249 454
249 40
249 112
249 25
249 390
249 31
249 319
249 118
249 16
249 58
249 167
250 562
250 28
250 10
250 23
250 24
250 25
250 270
250 2
250 506
250 504
250 1922
250 32
250 38
250 1097
250 27
250 49
250 176
250 255
250 1549
250 373
250 361
250 244
250 402
250 39
250 31
250 41
250 55
250 9
250 1137
250 253
250 254
250 106
250 350
250 56
250 58
250 40
250 36
250 249
250 72
250 83
250 827
250 138
250 137
250 57
250 214
250 694
250 50
250 261
250 263
250 258
250 112
250 151
250 252
251 1571
251 356
251 374
251 386
251 1572
251 1573
251 153
251 270
251 23
251 1570
251 28
251 37
251 421
251 319
251 422
251 58
251 2527
251 2
251 178
251 564
251 2261
251 26
251 56
251 57
251 24
251 176
251 248
251 301
251 38
251 10
251 379
251 261
251 265
251 2129
251 49
251 277
251 111
251 31
251 25
252 28
252 255
252 250
252 303
252 554
252 40
252 23
252 153
252 49
252 297
252 214
252 1533
252 34
252 33
252 31
252 2
252 244
252 176
252 25
252 24
252 928
252 73
252 361
252 56
252 249
252 288
253 176
253 248
253 243
253 361
253 56
253 57
253 24
253 37
253 254
253 425
253 426
253 427
253 691
253 689
253 692
253 423
253 413
253 25
253 23
253 424
253 428
253 429
253 430
253 431
253 432
253 421
253 319
253 422
253 433
253 733
253 259
253 260
253 791
253 792
253 795
253 608
253 521
253 794
253 103
253 796
253 797
253 798
253 799
253 28
253 333
253 40
253 234
253 232
253 340
253 32
253 229
253 347
253 185
253 58
253 178
253 922
253 2208
253 247
253 2
253 964
253 230
253 38
253 1669
253 355
253 249
253 395
253 112
253 49
253 39
253 255
253 73
253 43
253 990
253 694
253 26
253 36
253 439
253 35
253 165
253 31
253 55
253 250
253 270
254 37
254 23
254 691
254 689
254 692
254 253
254 425
254 426
254 427
254 176
254 248
254 243
254 361
254 56
254 57
254 24
254 423
254 413
254 25
254 424
254 428
254 429
254 430
254 431
254 432
254 421
254 319
254 422
254 433
254 690
254 693
254 1283
254 28
254 355
254 333
254 2
254 348
254 175
254 694
254 35
254 403
254 205
254 239
254 49
254 69
254 549
254 384
254 255
254 43
254 73
254 990
254 55
254 36
254 39
254 439
254 38
255 1148
255 9
255 28
255 23
255 1022
255 1023
255 1055
255 39
255 373
255 2147
255 2153
255 38
255 250
255 1524
255 10
255 2
255 562
255 1137
255 937
255 361
255 24
255 25
255 176
255 58
255 248
255 297
255 303
255 252
255 244
255 27
255 19
255 49
255 257
255 31
255 73
255 1358
255 320
256 49
256 239
256 42
256 24
257 417
257 239
257 736
257 732
257 723
257 734
257 735
257 28
257 10
257 246
257 41
257 175
257 2
257 271
257 272
257 55
257 273
257 274
257 378
257 9
257 936
257 278
257 23
257 24
257 25
257 69
257 49
257 361
257 205
257 178
257 255
257 937
257 250
257 277
257 251
257 346
257 938
257 939
257 56
257 57
257 940
257 31
257 176
257 941
257 107
257 213
257 554
258 2327
258 1968
258 1969
258 24
258 49
258 2
258 28
258 39
258 38
258 250
258 50
258 261
258 263
258 265
258 23
258 110
258 1698
258 31
259 262
259 794
259 260
259 248
259 791
259 176
259 253
259 243
259 361
259 56
259 57
259 24
259 37
259 793
259 740
259 440
259 1748
259 1749
259 1523
259 1407
259 49
259 28
259 40
259 23
260 262
260 794
260 259
260 248
260 791
260 792
260 176
260 253
260 243
260 361
260 56
260 57
260 24
260 37
260 740
260 440
260 793
260 1748
260 1749
260 1523
260 1407
260 49
260 28
260 40
261 251
261 23
261 58
261 28
261 2
261 374
261 178
261 39
261 49
261 38
261 250
261 258
261 265
261 50
261 263
261 1478
262 153
262 23
262 69
262 639
262 640
262 49
262 178
262 2
262 28
262 246
262 214
262 10
263 2
263 28
263 554
263 23
263 31
264 262
264 1003
264 1004
264 1005
264 2
264 28
264 49
264 271
265 23
265 261
265 28
265 250
265 38
265 39
265 49
265 50
265 263
265 258
265 2
265 1939
265 1940
265 598
266 703
266 2
266 23
266 386
266 28
266 10
266 39
266 29
266 554
266 9
266 31
266 228
266 395
266 176
266 49
266 355
267 28
267 2
267 49
268 262
268 555
268 556
268 554
268 557
268 558
268 406
268 49
268 2
268 28
268 178
268 23
269 262
269 28
269 2
269 23
270 23
270 421
270 120
270 1275
270 153
270 1572
270 1573
270 374
270 251
270 386
270 706
270 1733
270 319
270 422
270 88
270 92
270 93
270 89
270 91
270 94
270 95
270 2
270 39
270 10
270 69
270 31
270 28
270 165
270 548
270 167
270 1024
270 395
270 228
270 178
270 112
270 176
270 50
270 49
270 121
270 27
270 132
270 253
271 272
271 36
271 475
271 387
271 13
271 28
271 30
271 2
271 55
271 23
271 270
271 153
271 31
271 273
271 274
271 239
271 250
271 248
271 49
272 475
272 387
272 271
272 36
272 474
272 476
272 13
272 477
272 480
272 478
272 479
272 28
272 30
272 23
272 31
272 273
272 274
272 239
272 250
272 248
272 55
272 49
273 2031
273 274
273 55
273 369
273 514
273 516
273 389
273 111
273 388
273 110
273 38
273 112
273 1746
273 1747
273 4
273 856
273 28
273 257
273 239
273 271
273 272
273 10
273 240
273 31
273 73
273 24
273 37
273 23
273 248
273 319
274 273
274 55
274 369
274 2031
274 1746
274 1747
274 856
274 28
274 239
274 271
274 272
274 110
274 1384
274 38
274 23
274 25
274 36
274 10
275 28
275 276
275 2
275 277
275 249
275 278
276 924
276 1752
276 165
276 1172
276 107
276 925
276 28
276 491
276 23
276 229
276 928
276 106
277 28
277 1790
277 249
277 69
277 23
277 1553
277 1241
277 1242
277 375
277 1791
277 1075
277 359
277 1792
277 1793
277 278
277 2
277 9
277 257
277 251
277 111
277 31
277 24
277 25
277 1153
278 1017
278 1018
278 292
278 291
278 294
278 293
278 295
278 296
278 270
278 10
278 39
278 69
278 2
278 1019
278 1020
278 257
278 175
278 239
278 378
278 28
278 23
278 249
278 277
279 280
279 281
279 228
279 23
280 281
280 279
281 784
281 280
281 279
282 63
282 61
283 284
283 285
283 83
283 189
284 283
284 83
284 285
284 813
285 791
285 1037
285 83
285 189
285 1038
286 287
286 288
287 671
287 1008
287 346
287 355
287 1428
287 694
287 669
287 100
287 668
287 670
287 286
288 948
288 286
288 949
289 290
290 2408
290 289
290 23
290 356
290 3
290 31
291 292
291 293
291 294
291 295
291 278
291 296
292 291
292 293
292 294
292 295
292 278
292 296
293 291
293 292
293 294
293 295
293 278
293 296
294 291
294 292
294 293
294 295
294 278
294 296
295 291
295 292
295 293
295 294
295 278
295 296
296 278
296 291
296 292
296 294
296 293
296 295
297 298
297 252
297 299
297 28
297 244
297 255
297 25
297 23
297 300
297 24
297 176
297 301
297 302
297 303
298 297
298 23
298 411
298 1299
299 1391
299 1390
299 297
299 176
299 72
299 28
299 153
299 1401
299 2
299 252
299 244
299 303
299 388
299 43
299 990
299 1472
299 23
299 24
299 25
299 31
299 928
299 390
299 373
299 1526
300 468
300 302
300 466
300 467
300 465
300 469
300 470
300 347
300 303
300 24
300 301
300 25
300 23
300 297
300 28
300 252
301 1993
301 23
301 25
301 244
301 26
301 9
301 386
301 214
301 303
302 469
302 470
302 300
302 466
302 467
302 465
302 468
302 23
302 25
302 244
302 303
302 297
302 301
302 24
302 28
303 1343
303 1344
303 722
303 28
303 24
303 300
303 57
303 390
303 244
303 34
303 33
303 453
303 72
303 333
303 112
303 2
303 31
303 23
303 255
303 252
303 49
303 302
303 25
303 106
303 250
303 40
303 55
303 38
303 804
303 747
303 110
303 297
303 716
303 176
303 1134
304 193
304 305
304 306
304 191
304 145
304 138
305 193
305 191
305 306
305 664
305 666
306 191
306 305
306 193
306 304
306 124
306 101
306 664
306 100
306 665
306 666
306 667
307 309
307 308
307 23
307 24
307 25
307 15
307 1761
308 309
308 307
308 1779
308 107
308 775
309 307
309 308
309 2306
309 2307
309 1643
310 311
310 312
310 313
311 312
311 310
311 313
312 311
312 310
312 313
313 311
313 310
313 312
314 315
314 316
315 314
316 2
316 23
316 28
316 350
316 1773
316 1269
317 100
317 318
318 317
318 100
319 23
319 420
319 24
319 37
319 421
319 422
319 253
319 243
319 361
319 56
319 57
319 254
319 423
319 413
319 25
319 424
319 425
319 426
319 427
319 428
319 429
319 430
319 431
319 432
319 433
319 270
319 153
319 176
319 248
319 88
319 92
319 93
319 89
319 91
319 94
319 95
319 36
319 2
319 31
319 118
319 205
319 434
319 35
319 73
319 435
319 346
319 369
319 436
319 355
319 28
319 437
319 438
319 112
319 55
319 439
319 151
319 374
319 10
319 440
319 121
320 2323
320 2324
320 3
320 60
320 4
320 27
320 705
320 1359
320 62
320 51
320 64
320 769
320 20
320 852
320 2
320 213
320 1227
320 1226
320 65
320 321
320 249
320 63
320 322
320 16
320 326
320 1732
320 255
321 851
321 850
321 4
321 3
321 849
321 1011
321 325
321 846
321 20
321 249
321 848
321 60
321 63
321 2
321 27
321 320
321 1227
321 1226
321 61
321 322
321 326
321 51
322 416
322 2
322 27
322 3
322 60
322 63
322 321
322 20
322 249
322 61
322 326
322 320
322 1290
322 923
322 178
322 23
322 167
322 28
322 25
322 24
322 349
323 19
323 17
323 384
324 2
324 387
324 244
324 9
324 1072
324 23
324 112
324 178
324 373
324 110
324 36
325 849
325 1011
325 4
325 1012
325 1310
325 1015
325 1009
325 1010
325 20
325 321
325 846
325 1
325 3
326 1729
326 1730
326 60
326 61
326 2
326 3
326 322
326 27
326 63
326 1731
326 320
326 321
326 51
326 371
326 327
326 1732
327 1207
327 1825
327 27
327 2
327 320
327 371
327 326
327 3
327 63
328 28
328 2
328 1075
328 362
328 357
328 1043
328 580
328 581
328 27
329 760
329 761
329 23
329 112
329 319
329 118
329 28
329 107
329 178
329 759
329 2314
329 32
329 185
329 614
329 350
329 192
329 25
329 37
329 24
329 560
329 491
329 110
329 355
329 2
329 31
329 46
329 1377
329 58
329 38
329 10
329 354
329 239
329 49
329 924
330 699
330 1498
330 1079
330 1319
330 1359
330 27
330 1360
330 2
330 2049
331 332
331 28
331 2
331 23
332 28
332 2
332 1752
332 331
332 1976
332 1977
332 414
332 107
332 994
332 23
332 924
332 276
333 39
333 28
333 335
333 253
333 404
333 25
333 30
333 24
333 36
333 1758
333 344
333 345
333 32
333 2
333 694
333 112
333 1095
333 1759
333 1760
333 31
333 23
333 303
333 299
333 388
333 43
333 990
333 1472
333 110
333 111
333 55
333 26
333 38
333 1569
334 151
334 2
334 28
334 107
334 178
334 72
334 392
334 394
334 58
334 27
334 756
334 757
334 758
334 329
334 759
334 760
334 761
334 762
334 192
334 393
334 35
334 23
334 9
334 453
334 763
334 764
334 765
334 322
334 416
335 336
335 39
335 38
335 439
335 333
335 28
335 2229
335 1758
335 1422
335 2
336 39
336 335
336 38
336 439
336 333
336 2
336 270
336 10
336 69
336 28
337 338
337 28
337 2
338 32
338 337
338 28
338 2
338 185
338 31
338 58
338 247
339 1220
339 30
340 613
340 28
340 698
340 343
340 32
340 2093
340 2092
340 342
340 694
340 341
340 247
340 2
340 395
340 600
340 184
340 185
340 237
340 226
340 1349
340 106
340 350
340 230
340 194
340 398
340 347
340 614
340 253
340 10
340 23
340 38
340 49
341 340
341 613
341 28
341 352
341 38
341 178
341 192
341 342
341 243
341 398
341 29
342 340
342 959
342 958
342 32
342 341
342 614
342 247
342 924
342 1186
342 2
342 28
342 58
342 472
342 38
342 394
342 698
342 167
342 2347
343 698
343 340
343 32
343 2093
343 2092
344 1286
344 1287
344 32
344 333
344 1288
344 185
344 38
344 2
344 31
344 395
344 345
344 178
344 347
344 1289
344 39
344 920
344 472
344 928
344 550
344 237
344 352
344 1290
344 229
344 923
344 247
344 355
344 235
344 226
344 965
344 230
344 106
344 23
344 439
345 236
345 919
345 917
345 918
345 237
345 333
345 354
345 767
345 2
345 32
345 344
345 398
345 228
345 106
345 1238
346 575
346 355
346 287
346 28
346 23
346 69
346 178
346 32
346 394
346 2
346 576
346 176
346 378
346 49
346 239
346 248
346 118
346 369
346 319
346 112
346 257
346 175
346 227
347 549
347 56
347 57
347 996
347 997
347 998
347 999
347 550
347 28
347 230
347 32
347 185
347 229
347 58
347 31
347 178
347 253
347 921
347 394
347 247
347 395
347 228
347 2
347 340
347 748
347 38
347 227
347 350
348 2353
348 2354
348 178
348 349
348 185
348 32
348 239
348 24
348 23
348 355
348 2
348 376
348 377
348 382
348 253
348 254
348 692
348 9
348 28
348 395
348 1965
349 185
349 853
349 32
349 229
349 322
349 2
349 348
349 223
350 106
350 28
350 244
350 36
350 392
350 58
350 38
350 783
350 1131
350 32
350 185
350 2
350 253
350 178
350 1045
350 31
350 243
350 923
350 229
350 344
350 237
350 23
350 24
350 354
350 228
350 194
350 110
350 37
350 407
350 415
350 25
350 1277
350 614
350 10
350 30
350 391
350 42
350 395
350 239
350 355
350 346
350 33
350 34
350 72
350 138
350 374
350 107
350 49
350 276
350 800
350 248
350 919
350 1752
351 1349
351 2274
351 230
351 28
351 32
352 2072
352 2071
352 2068
352 2069
352 2067
352 2070
352 230
352 110
352 340
352 253
352 32
352 28
352 31
352 247
352 398
352 228
352 38
352 1046
352 2
352 227
352 868
352 229
352 236
352 237
353 32
353 35
353 340
353 600
353 237
353 344
353 965
354 1848
354 1849
354 1850
354 28
354 23
354 24
354 36
354 340
354 270
354 10
354 39
354 69
354 153
354 31
354 766
354 767
354 345
354 746
354 32
354 2
354 58
354 167
354 37
354 899
354 25
354 178
354 406
354 407
354 415
354 228
354 112
354 106
354 184
354 1460
354 248
354 1851
354 9
354 110
354 244
354 49
355 346
355 575
355 287
355 403
355 28
355 23
355 69
355 278
355 277
355 319
355 118
355 32
355 340
355 395
355 2
355 31
355 185
355 347
355 235
355 344
355 112
355 489
355 25
355 254
355 205
355 694
355 35
355 239
355 49
355 175
355 178
355 270
355 153
355 244
355 36
355 249
355 413
355 411
355 821
355 24
355 350
355 167
355 414
355 1249
356 386
356 23
356 251
356 1571
356 374
356 1801
356 10
356 153
356 270
356 1628
356 31
357 1075
357 359
357 375
357 28
357 107
357 682
357 369
357 358
357 23
357 2
357 664
357 2258
358 1072
358 1073
358 359
358 375
358 357
358 1074
358 1075
358 2
358 28
358 23
359 357
359 1075
359 375
359 28
359 107
359 682
359 358
359 2
359 1074
359 1241
359 1242
359 23
359 369
359 55
359 1073
360 10
360 727
360 515
360 513
360 440
360 510
360 514
360 740
360 516
360 55
360 389
360 111
360 717
360 737
360 511
360 512
360 28
360 107
360 110
360 379
360 23
360 24
360 25
360 361
360 388
360 39
360 1996
360 31
360 112
360 157
361 257
361 56
361 176
361 248
361 253
361 243
361 57
361 24
361 423
361 428
361 429
361 254
361 413
361 25
361 23
361 424
361 425
361 426
361 427
361 430
361 431
361 432
361 421
361 319
361 422
361 433
361 733
361 259
361 260
361 791
361 792
361 795
361 608
361 521
361 794
361 103
361 796
361 797
361 798
361 799
361 1277
361 28
361 37
361 26
361 9
361 2
361 16
361 250
361 40
361 489
361 69
361 32
361 614
361 329
361 350
361 10
361 2381
361 386
361 244
361 249
361 373
361 255
361 252
361 41
361 55
361 35
361 175
361 378
361 39
361 178
361 58
361 740
361 439
361 2382
362 28
362 2
362 23
362 9
362 1802
362 2303
362 178
362 1546
362 261
362 167
362 10
362 55
362 25
362 13
362 36
362 375
362 1241
362 694
362 112
362 24
362 1412
363 1541
363 1542
363 1543
363 28
363 32
363 2
363 23
363 243
363 38
363 598
363 1544
364 937
364 28
364 2
364 23
364 374
364 251
364 9
365 28
365 23
365 178
365 112
365 111
365 24
365 25
365 46
365 978
366 205
366 27
366 28
366 23
366 24
366 1565
366 2
366 694
366 743
366 741
367 1437
367 1438
367 1439
367 1440
367 601
367 1441
367 46
367 509
367 368
367 228
367 1442
367 1047
367 1221
367 538
367 1443
367 830
367 829
367 178
367 192
367 1192
367 1068
367 1444
367 47
367 10
367 1318
367 72
367 31
367 508
367 1445
367 828
367 36
367 1446
367 627
367 1447
367 1448
367 1449
367 1450
367 583
367 58
367 1451
367 382
367 30
368 2086
368 2087
368 1221
368 1228
368 155
368 928
368 694
368 46
368 367
368 509
368 1440
368 1047
368 828
368 483
368 776
368 777
369 25
369 28
369 55
369 273
369 375
369 1075
369 514
369 516
369 389
369 111
369 274
369 388
369 110
369 38
369 112
369 107
369 682
369 438
369 437
369 346
369 23
369 355
369 319
369 118
369 424
369 36
369 249
369 153
369 24
369 37
369 151
369 439
369 1162
369 92
369 270
369 10
369 39
369 69
369 1164
370 201
370 746
370 107
370 785
370 867
370 23
370 614
370 347
370 32
370 192
370 1268
370 572
370 127
370 1650
370 2273
370 2
371 27
371 2
371 3
371 20
371 65
371 327
372 176
372 248
372 178
372 2
372 334
372 1645
373 1973
373 2
373 9
373 255
373 252
373 250
373 1524
373 38
373 402
373 244
373 23
373 178
373 58
373 2152
373 28
373 2147
373 2153
373 303
373 31
373 299
373 36
373 33
373 34
373 387
374 153
374 1572
374 1573
374 251
374 386
374 1571
374 270
374 356
374 23
374 1570
374 28
374 178
374 37
374 421
374 319
374 422
374 31
374 2
374 10
374 564
374 2261
374 26
374 56
374 57
374 24
374 176
374 248
374 49
374 379
374 261
374 265
374 249
374 250
374 58
375 28
375 1241
375 1242
375 1075
375 357
375 359
375 369
375 1074
375 107
375 682
375 2
375 23
375 69
375 239
375 257
375 277
375 55
375 358
375 38
376 2167
376 178
376 348
376 2
376 28
376 377
377 28
377 376
377 2
377 178
377 348
377 453
377 1875
378 361
378 346
378 938
378 939
378 257
378 239
378 23
378 379
378 417
378 278
378 28
378 25
378 26
378 2
378 31
378 49
378 9
378 395
378 46
378 1045
378 2033
379 2035
379 1657
379 23
379 515
379 513
379 10
379 360
379 55
379 111
379 319
379 24
379 25
379 28
379 2
379 56
379 176
379 26
379 112
379 107
379 29
379 303
379 31
379 374
379 270
380 17
380 21
380 2
381 386
381 23
381 1569
381 24
381 25
381 251
382 1800
382 1798
382 178
382 25
382 1799
382 348
382 2
382 28
382 24
382 23
382 244
382 10
382 494
382 46
383 1558
383 1559
383 1560
383 58
383 1561
384 2047
384 1748
384 794
384 2088
384 740
384 793
384 1749
384 1523
384 1407
384 24
384 248
384 132
384 37
384 928
384 23
384 38
384 254
384 253
384 50
384 2
384 18
384 35
384 56
384 57
384 694
384 25
384 356
385 23
385 579
385 176
385 249
385 2
385 58
385 255
385 28
386 374
386 251
386 356
386 23
386 1570
386 1571
386 1572
386 1573
386 153
386 270
386 28
386 58
386 266
386 1493
386 178
386 2
386 564
386 56
386 57
386 24
386 10
386 176
386 355
386 244
386 421
386 319
386 422
386 37
386 31
386 1574
386 112
386 110
386 111
387 475
387 272
387 474
387 476
387 271
387 36
387 13
387 58
387 334
387 28
387 23
387 2
387 24
387 25
387 37
387 373
387 16
387 350
387 110
387 324
388 439
388 607
388 389
388 38
388 39
388 514
388 516
388 55
388 111
388 273
388 110
388 369
388 112
388 28
388 10
388 176
388 23
388 178
388 31
388 2
388 299
388 43
388 990
388 1472
388 24
388 25
388 390
388 333
388 44
389 55
389 111
389 388
389 514
389 516
389 38
389 39
389 439
389 607
389 273
389 110
389 369
389 112
389 511
389 512
389 513
389 510
389 515
389 10
389 360
389 72
389 2
389 49
389 23
389 32
389 178
389 28
389 40
389 248
389 37
389 176
389 521
389 608
390 2200
390 28
390 56
390 57
390 23
390 413
390 58
390 152
390 411
390 154
390 24
390 25
390 112
390 110
390 1277
390 107
390 10
390 2
390 355
390 175
390 244
390 228
390 178
390 1283
390 388
390 299
390 132
390 1472
390 253
390 254
390 37
390 250
390 39
390 36
390 403
390 13
390 303
390 137
390 31
390 106
390 350
390 412
390 489
390 43
390 42
390 404
390 495
390 405
390 407
390 406
390 408
390 73
390 409
390 410
390 402
390 414
390 638
390 868
391 28
391 23
391 407
391 106
391 395
391 239
391 396
391 58
391 350
391 178
391 2
391 413
391 167
391 329
391 31
391 49
391 244
391 9
391 34
391 33
391 570
392 2
392 334
392 350
392 1583
393 2
393 72
393 28
393 50
393 16
393 320
393 3
393 4
393 178
393 151
393 334
394 3
394 2444
394 2445
394 334
394 529
394 528
394 392
394 247
394 2
394 395
394 32
394 178
394 35
394 56
394 57
394 112
394 881
395 39
395 28
395 2
395 13
395 333
395 58
395 347
395 229
395 253
395 32
395 247
395 31
395 230
395 344
395 355
395 965
395 185
395 36
395 24
395 178
395 23
395 167
395 25
395 354
395 350
395 415
395 1277
395 407
395 614
395 10
395 413
395 69
395 56
395 57
395 205
395 254
395 9
395 244
395 402
395 412
395 490
395 73
395 37
395 411
395 112
395 1055
395 34
395 33
395 42
395 228
395 828
395 1192
395 1821
395 1446
395 44
395 319
395 665
396 495
396 23
396 178
396 2
396 24
396 35
396 244
396 9
396 25
397 30
397 23
397 167
397 28
397 2
397 244
397 178
397 600
397 32
397 25
397 36
397 112
397 900
397 1772
397 404
397 495
397 31
397 58
397 395
397 1047
397 46
397 24
397 106
397 39
397 165
398 28
398 36
398 2
398 244
398 58
398 23
398 1714
398 507
398 347
398 230
398 185
398 32
398 1702
398 535
398 112
398 31
398 354
398 25
398 1277
398 107
398 37
398 24
398 355
398 800
398 10
398 106
398 489
398 57
398 491
398 30
398 1563
398 33
398 34
398 319
398 345
398 167
398 406
398 990
398 833
399 956
400 28
400 25
400 1992
400 58
400 23
400 178
400 24
400 244
400 2
400 2428
401 750
401 28
401 31
401 55
401 249
401 36
401 176
401 255
401 33
401 2
401 167
402 1614
402 1301
402 23
402 403
402 244
402 250
402 355
402 2
402 28
402 25
402 9
402 395
403 1295
403 1296
403 1297
403 1298
403 355
403 1283
403 23
403 408
403 28
403 69
403 402
403 112
403 491
403 560
403 154
403 36
403 24
403 228
403 25
403 244
403 37
403 2
403 73
403 276
403 1299
403 424
403 411
403 694
403 553
403 1300
403 10
403 1301
403 409
403 410
403 414
403 406
403 407
403 13
403 405
403 412
403 413
403 390
403 56
403 57
403 43
403 42
403 404
403 495
403 31
403 1302
404 23
404 24
404 2175
404 2176
404 982
404 981
404 980
404 28
404 333
404 25
404 495
404 165
404 354
404 31
404 30
404 43
404 355
404 42
404 178
404 49
404 239
404 36
404 405
404 244
404 397
404 72
404 821
404 37
404 73
405 737
405 920
405 28
405 23
405 13
405 407
405 25
405 355
405 112
405 10
405 406
405 107
405 228
405 415
405 24
405 244
405 2
405 1065
405 56
405 57
405 491
405 560
405 31
405 43
405 42
405 36
405 37
405 33
405 34
405 58
405 73
405 111
405 411
406 554
406 268
406 557
406 558
406 555
406 556
406 1309
406 1621
406 28
406 23
406 563
406 32
406 42
406 25
406 58
406 350
406 13
406 407
406 1202
406 1939
406 405
406 107
406 354
406 415
406 10
406 355
406 244
406 560
406 24
406 112
406 491
406 414
406 37
406 495
406 404
406 43
406 424
406 73
406 36
406 412
406 413
406 411
406 56
406 57
406 1321
406 409
406 410
406 408
406 403
406 402
406 2269
407 2159
407 28
407 23
407 405
407 13
407 354
407 24
407 25
407 228
407 36
407 31
407 112
407 614
407 178
407 192
407 106
407 391
407 355
407 406
407 73
407 410
407 409
407 491
407 560
407 244
407 415
408 37
408 403
408 24
408 23
408 409
408 410
408 494
408 28
408 25
408 355
408 2
408 244
408 72
408 33
408 34
408 276
408 248
408 55
408 57
408 414
409 1091
409 1406
409 1088
409 1089
409 1090
409 1092
409 1093
409 286
409 25
409 23
409 408
409 410
409 494
409 182
409 181
409 107
409 424
409 354
409 244
409 110
409 112
409 491
409 560
409 72
409 31
409 2
409 58
409 28
409 24
409 36
409 403
410 60
410 61
410 673
410 674
410 675
410 676
410 23
410 28
410 409
410 408
410 405
410 424
410 244
410 24
410 414
410 56
410 57
410 560
410 677
410 13
410 406
410 407
410 491
410 112
410 494
410 540
411 2170
411 2171
411 1226
411 28
411 413
411 412
411 23
411 58
411 56
411 57
411 489
411 112
411 25
411 354
411 31
411 407
411 355
411 10
411 156
411 398
411 254
411 205
411 2
411 244
411 24
411 192
411 37
411 1485
411 44
411 1299
411 395
411 43
411 16
411 42
411 403
411 178
411 424
411 36
411 404
411 495
411 406
411 409
411 410
411 408
411 414
411 405
411 13
411 402
411 73
411 72
411 270
412 28
412 23
412 411
412 413
412 390
412 489
412 56
412 57
412 24
412 25
412 36
412 112
412 355
412 10
412 243
412 244
412 106
412 409
412 490
412 31
412 395
412 491
412 37
412 492
412 493
412 253
412 254
412 494
412 42
412 43
412 404
412 495
412 407
412 406
412 410
412 408
412 414
412 405
412 13
412 403
412 424
412 402
412 73
413 57
413 621
413 624
413 430
413 176
413 248
413 253
413 243
413 361
413 56
413 24
413 37
413 254
413 423
413 25
413 23
413 424
413 425
413 426
413 427
413 428
413 429
413 431
413 432
413 421
413 319
413 422
413 433
413 625
413 28
413 390
413 411
413 489
413 31
413 398
413 412
413 354
413 355
413 2
413 58
413 244
413 626
413 112
413 492
413 493
413 402
413 192
413 10
413 35
413 178
413 43
413 42
413 404
413 36
413 73
413 13
413 405
413 406
413 409
413 407
413 410
413 403
413 408
413 414
414 1752
414 1976
414 1977
414 332
414 23
414 24
414 405
414 407
414 1202
414 2
414 355
414 13
414 25
414 56
414 57
414 28
414 31
414 37
414 72
414 390
414 73
414 58
414 1055
414 404
414 36
414 424
415 1320
415 1321
415 28
415 23
415 112
415 354
415 25
415 24
415 107
415 31
415 355
415 35
415 69
415 244
415 2
415 489
415 58
415 36
415 37
415 56
415 57
415 390
415 413
415 411
415 412
415 405
415 406
415 13
415 407
415 414
415 409
415 410
415 408
415 73
415 403
415 402
415 638
416 322
416 2
416 28
417 239
417 257
417 28
417 271
417 272
417 378
417 10
418 100
418 104
418 101
418 151
418 103
418 191
418 1523
418 572
418 2
419 2
419 28
420 1725
420 1727
420 1327
420 1726
420 1155
420 319
420 118
420 23
420 398
420 28
420 1478
421 23
421 270
421 37
421 319
421 422
421 253
421 243
421 361
421 56
421 57
421 24
421 254
421 423
421 413
421 25
421 424
421 425
421 426
421 427
421 428
421 429
421 430
421 431
421 432
421 433
421 153
421 176
421 248
421 88
421 92
421 93
421 89
421 91
421 94
421 95
421 10
421 205
421 434
421 35
421 439
421 112
421 118
421 2121
421 440
421 121
422 23
422 153
422 37
422 421
422 319
422 253
422 243
422 361
422 56
422 57
422 24
422 254
422 423
422 413
422 25
422 424
422 425
422 426
422 427
422 428
422 429
422 430
422 431
422 432
422 433
422 270
422 176
422 248
422 88
422 92
422 93
422 89
422 91
422 94
422 95
422 73
422 35
422 439
422 38
422 28
422 39
422 10
422 2
422 31
422 521
422 440
422 121
422 682
423 361
423 429
423 428
423 176
423 248
423 253
423 243
423 56
423 57
423 24
423 37
423 254
423 413
423 25
423 23
423 424
423 425
423 426
423 427
423 430
423 431
423 432
423 421
423 319
423 422
423 433
424 2358
424 2359
424 495
424 24
424 433
424 176
424 248
424 253
424 243
424 361
424 56
424 57
424 37
424 254
424 423
424 413
424 23
424 425
424 426
424 427
424 428
424 429
424 430
424 421
424 319
424 422
424 28
424 2
424 536
424 841
424 2297
424 2360
424 821
424 355
424 25
424 205
424 228
424 410
424 244
424 36
424 43
424 403
424 1299
424 411
424 118
424 73
425 253
425 254
425 426
425 427
425 176
425 248
425 691
425 689
425 243
425 361
425 56
425 57
425 24
425 37
425 692
425 423
425 413
425 25
425 23
425 424
425 428
425 429
425 430
425 431
425 432
425 421
425 319
425 422
425 433
425 103
425 796
425 797
425 798
425 799
425 1327
425 439
425 28
425 35
425 333
425 38
425 151
426 253
426 254
426 425
426 427
426 243
426 361
426 56
426 57
426 24
426 37
426 692
426 423
426 413
426 25
426 23
426 424
426 428
426 429
426 430
426 431
426 432
426 421
426 319
426 422
426 433
426 176
426 248
426 691
426 689
426 103
426 796
426 797
426 798
426 799
426 1327
427 253
427 254
427 425
427 426
427 243
427 361
427 56
427 57
427 24
427 37
427 692
427 423
427 413
427 25
427 23
427 424
427 428
427 429
427 430
427 431
427 432
427 421
427 319
427 422
427 433
427 176
427 248
427 691
427 689
427 103
427 796
427 797
427 798
427 799
427 1327
427 1222
428 361
428 423
428 248
428 176
428 429
428 253
428 243
428 56
428 57
428 24
428 37
428 254
428 413
428 25
428 23
428 424
428 425
428 426
428 427
428 430
428 431
428 432
428 421
428 319
428 422
428 433
428 103
428 796
428 797
428 798
428 799
428 153
429 361
429 423
429 428
429 253
429 243
429 56
429 57
429 24
429 37
429 254
429 413
429 25
429 23
429 424
429 425
429 426
429 427
429 430
429 431
429 432
429 421
429 319
429 422
429 433
429 176
429 248
429 103
429 796
429 797
429 798
429 799
430 57
430 56
430 413
430 253
430 243
430 361
430 24
430 37
430 254
430 423
430 25
430 23
430 424
430 425
430 426
430 427
430 428
430 429
430 431
430 432
430 421
430 319
430 422
430 433
430 176
430 248
430 624
430 103
430 796
430 797
430 798
430 799
430 1327
431 24
431 25
431 432
431 253
431 243
431 361
431 56
431 57
431 37
431 254
431 423
431 413
431 23
431 425
431 426
431 427
431 428
431 429
431 430
431 421
431 319
431 422
431 176
431 248
431 804
431 747
431 103
431 796
431 797
431 798
431 799
431 1326
431 118
431 112
431 58
431 355
431 369
431 28
431 270
431 153
431 374
431 111
431 404
431 395
431 821
432 25
432 24
432 431
432 253
432 243
432 361
432 56
432 57
432 37
432 254
432 423
432 413
432 23
432 425
432 427
432 426
432 428
432 429
432 430
432 421
432 319
432 422
432 176
432 248
432 804
432 747
432 103
432 796
432 797
432 798
432 799
432 1326
433 319
433 24
433 424
433 176
433 248
433 2358
433 2359
433 253
433 243
433 361
433 56
433 57
433 37
433 495
433 254
433 423
433 413
433 23
433 425
433 426
433 427
433 428
433 429
433 430
433 421
433 422
433 103
433 796
433 797
433 798
433 799
433 118
433 25
433 205
434 457
434 458
434 37
434 319
434 24
434 35
435 118
435 24
435 677
435 112
435 110
435 111
435 820
435 702
435 145
435 700
435 701
435 821
435 25
435 23
436 53
436 2336
436 1196
436 23
436 25
436 491
436 560
436 112
436 72
436 1051
436 28
436 110
436 319
436 118
436 660
436 43
436 36
436 1425
436 1908
437 1423
437 454
437 574
437 1427
437 456
437 369
437 273
437 1275
438 319
438 118
438 28
438 23
438 37
438 58
438 369
439 39
439 38
439 335
439 336
439 388
439 389
439 425
439 23
439 35
439 253
439 421
439 422
439 55
439 40
439 111
439 110
439 112
439 118
439 273
439 10
439 360
439 121
439 94
439 254
439 2
439 178
439 333
439 36
439 387
439 151
439 49
439 369
439 361
440 717
440 737
440 515
440 740
440 513
440 794
440 248
440 259
440 260
440 10
440 360
440 726
440 727
440 719
440 724
440 72
440 176
440 23
440 2139
441 442
441 443
441 444
441 445
441 28
442 441
442 444
442 443
442 445
442 244
442 28
442 303
443 441
443 444
443 442
443 445
444 445
444 442
444 441
444 443
445 444
445 441
446 447
446 448
446 449
446 25
447 448
447 449
447 25
448 449
448 447
448 446
448 25
449 448
449 447
449 446
449 25
450 34
450 33
450 451
450 452
450 27
450 1211
450 1212
450 1213
450 20
450 65
450 3
450 327
450 1054
451 452
451 34
451 33
451 450
451 821
451 23
451 28
452 451
452 34
452 33
452 450
452 821
452 23
452 28
453 28
453 377
453 178
453 244
453 34
453 33
453 303
453 25
453 23
453 2
453 9
453 10
453 239
453 49
453 69
453 348
453 859
453 110
453 184
453 840
453 36
453 73
454 1423
454 456
454 574
454 1427
454 437
454 28
454 24
454 992
454 23
454 25
454 40
454 39
454 38
454 178
454 31
454 249
454 112
454 2467
454 2
454 55
454 2468
455 28
455 23
455 1384
455 453
455 561
455 110
455 33
456 176
456 33
457 37
457 458
457 434
457 459
458 457
458 37
458 434
459 175
459 1206
459 457
460 977
460 978
461 462
462 461
462 1079
462 1080
463 716
463 717
463 10
463 72
464 1402
464 72
464 519
465 300
465 302
465 466
465 467
465 468
465 469
465 470
466 300
466 302
466 467
466 465
466 468
466 469
466 470
467 300
467 302
467 466
467 465
467 468
467 469
467 470
468 300
468 302
468 466
468 467
468 465
468 32
469 470
469 302
469 300
469 466
469 467
469 465
469 244
469 28
469 23
469 25
469 24
470 469
470 302
470 300
470 466
470 467
470 465
470 244
470 28
470 23
470 25
470 24
471 185
471 32
471 472
471 473
472 2116
472 2117
472 2118
472 32
472 230
472 253
472 229
472 352
472 237
472 867
472 16
472 504
472 507
472 56
472 57
473 178
473 23
473 471
474 475
474 476
474 387
474 272
474 477
474 478
474 479
474 36
474 41
474 480
475 474
475 387
475 272
475 271
475 476
475 36
475 477
475 478
475 479
475 178
475 244
476 474
476 475
476 387
476 272
476 36
476 1696
476 69
477 480
477 478
477 479
477 716
477 722
477 521
477 723
477 608
477 732
477 733
477 176
477 791
477 734
477 735
477 475
477 474
477 272
477 36
478 477
478 480
478 479
478 521
478 723
478 608
478 732
478 733
478 791
478 176
478 734
478 735
478 716
478 722
478 475
478 474
478 272
478 36
478 257
478 387
479 477
479 480
479 478
479 521
479 723
479 608
479 732
479 733
479 791
479 176
479 734
479 735
479 716
479 722
479 475
479 474
479 272
479 36
479 257
479 476
480 716
480 722
480 521
480 723
480 477
480 478
480 479
480 608
480 732
480 733
480 176
480 734
480 735
480 791
480 792
480 719
480 720
480 721
480 519
480 724
480 725
480 520
480 717
480 726
480 727
480 511
480 517
480 518
480 121
480 738
480 739
480 151
480 718
480 475
480 474
480 387
480 476
480 272
480 271
480 36
480 13
480 72
480 28
480 55
481 257
481 176
482 487
482 23
483 484
483 485
483 486
483 46
484 483
484 486
484 485
485 484
485 483
486 484
486 483
486 46
487 482
487 488
488 2225
488 487
489 2344
489 2345
489 2346
489 781
489 779
489 776
489 780
489 28
489 361
489 23
489 243
489 38
489 58
489 36
489 31
489 398
489 167
489 112
489 355
489 39
489 10
489 403
489 24
489 25
489 413
489 415
489 411
489 412
489 494
489 56
489 57
489 694
489 154
489 205
490 1058
490 1059
490 1060
490 413
490 110
490 112
490 24
490 412
490 31
491 1384
491 512
491 28
491 560
491 112
491 244
491 23
491 24
491 25
491 1532
491 39
491 10
491 355
491 57
491 110
491 31
491 34
491 33
491 1587
491 2226
491 413
491 386
491 228
491 1051
492 493
492 56
492 57
492 244
492 413
492 24
492 414
492 37
492 602
492 355
493 492
493 56
493 57
493 413
493 2
493 23
494 23
494 28
494 31
494 56
494 491
494 415
494 404
494 39
494 38
494 560
494 489
494 36
495 165
495 2358
495 2359
495 424
495 24
495 433
495 404
495 23
495 28
495 494
495 36
495 25
495 112
495 821
495 58
495 30
495 39
495 43
495 178
495 403
495 396
495 355
495 244
495 2
495 397
495 72
495 31
495 214
495 40
495 319
495 118
495 1285
495 73
495 333
495 205
495 1055
495 42
495 56
495 57
495 37
495 390
495 413
495 411
495 412
495 13
495 405
495 406
495 409
495 407
495 410
495 408
495 414
495 402
496 37
496 497
496 498
496 499
496 500
496 501
497 37
497 496
497 498
497 499
497 500
497 501
498 37
498 499
498 496
498 497
499 37
499 498
499 496
499 497
500 501
501 500
501 2260
502 503
502 30
503 502
504 472
504 340
504 243
504 32
504 505
504 506
504 250
504 507
504 185
505 504
505 32
505 178
506 522
506 523
506 524
506 2
506 32
507 591
507 592
507 593
507 594
507 595
507 32
507 229
507 398
507 243
507 596
507 597
507 185
507 598
507 72
507 31
507 110
507 543
507 599
507 58
507 236
507 237
507 226
507 352
507 347
507 230
507 550
507 600
507 601
508 46
508 509
509 538
509 539
509 540
509 541
509 46
509 367
509 368
509 1192
509 1047
510 511
510 512
510 513
510 514
510 515
510 516
510 55
510 389
510 111
510 10
510 360
510 517
510 518
510 121
510 94
510 95
510 519
510 520
510 72
510 521
511 519
511 520
511 517
511 518
511 121
511 512
511 513
511 510
511 514
511 515
511 516
511 10
511 360
511 55
511 389
511 111
511 94
511 95
511 151
511 718
511 719
511 720
511 716
511 721
511 724
511 722
511 725
511 717
511 726
511 727
511 480
511 521
511 723
511 738
511 739
511 72
511 2209
512 511
512 513
512 510
512 514
512 519
512 520
512 517
512 518
512 121
512 94
512 95
512 704
512 515
512 516
512 55
512 389
512 111
512 10
512 360
512 1384
512 491
513 511
513 512
513 510
513 514
513 515
513 10
513 360
513 717
513 737
513 440
513 740
513 516
513 55
513 389
513 111
513 517
513 518
513 121
513 94
513 95
513 704
513 519
513 520
513 72
513 28
513 379
513 69
513 23
514 511
514 512
514 513
514 510
514 516
514 55
514 389
514 111
514 273
514 388
514 110
514 369
514 38
514 112
514 515
514 10
514 360
514 519
514 520
514 517
514 518
514 121
514 94
514 95
514 72
514 439
514 118
514 464
514 151
515 717
515 737
515 440
515 513
515 10
515 360
515 511
515 512
515 1384
515 740
515 510
515 514
515 516
515 55
515 389
515 111
515 726
515 727
515 719
515 724
515 72
515 28
515 23
516 514
516 55
516 389
516 111
516 511
516 512
516 513
516 510
516 515
516 10
516 360
516 273
516 388
516 110
516 369
516 38
516 112
516 1366
516 65
516 1566
516 1567
516 240
516 617
516 439
516 118
516 72
516 1402
516 729
516 23
517 519
517 520
517 511
517 518
517 121
517 512
517 94
517 513
517 510
517 514
517 95
517 719
517 720
517 716
517 721
517 724
517 722
517 725
517 717
517 726
517 727
517 480
517 521
517 723
517 738
517 739
517 151
517 718
517 72
517 389
517 440
517 10
517 704
517 55
517 369
517 28
518 519
518 520
518 511
518 517
518 121
518 512
518 94
518 513
518 510
518 514
518 95
518 719
518 720
518 716
518 721
518 724
518 722
518 725
518 717
518 726
518 727
518 480
518 521
518 723
518 738
518 739
518 151
518 718
519 151
519 718
519 719
519 720
519 716
519 721
519 520
519 511
519 517
519 518
519 121
519 724
519 722
519 725
519 717
519 726
519 727
519 480
519 521
519 723
519 738
519 739
519 728
519 729
519 730
519 731
519 94
519 512
519 513
519 510
519 514
519 95
519 72
519 464
519 120
519 1275
519 270
519 23
520 519
520 511
520 517
520 518
520 121
520 151
520 718
520 719
520 720
520 716
520 721
520 724
520 722
520 725
520 717
520 726
520 360
520 480
520 521
520 723
520 738
520 739
520 512
520 94
520 513
520 510
520 514
520 95
520 1532
520 2284
520 55
520 389
520 111
520 10
520 38
520 112
520 369
520 439
520 118
520 120
520 1275
520 270
520 23
521 480
521 723
521 716
521 722
521 608
521 176
521 733
521 791
521 792
521 248
521 253
521 243
521 361
521 56
521 57
521 24
521 37
521 795
521 477
521 732
521 478
521 479
521 734
521 735
521 151
521 718
521 719
521 720
521 721
521 519
521 724
521 725
521 520
521 717
521 726
521 727
521 738
521 739
521 511
521 517
521 518
521 121
521 72
521 730
521 389
522 524
522 523
522 506
522 2
523 524
523 522
523 506
523 2
524 522
524 523
524 506
524 2
525 526
525 100
526 525
527 460
527 528
527 529
527 530
528 527
528 530
528 529
529 530
529 537
529 460
529 528
529 527
530 529
530 527
530 528
530 460
530 24
530 248
531 532
531 533
531 102
531 534
532 531
532 533
532 102
533 534
533 102
533 103
533 170
533 171
533 101
533 1268
533 30
534 533
534 102
535 398
535 106
535 536
536 23
536 535
537 529
537 460
538 539
538 509
538 540
538 541
538 542
539 538
539 509
539 540
539 541
540 538
540 539
540 541
540 509
540 1285
540 410
541 538
541 539
541 540
541 509
542 509
542 538
542 1068
542 945
542 58
542 367
543 544
543 545
543 72
543 546
543 547
543 548
543 549
543 32
543 230
543 550
543 551
543 185
543 552
543 237
543 16
543 44
543 553
543 28
544 543
544 545
544 72
544 46
545 585
545 543
545 544
545 46
545 584
545 165
545 1045
546 23
547 2418
547 1777
547 1069
548 23
549 1250
549 1251
549 1252
549 1253
549 1254
549 1255
549 248
549 1256
549 2
549 32
549 35
549 507
549 227
549 235
549 472
549 237
549 36
550 655
550 656
550 551
550 657
550 237
550 347
550 32
550 230
550 31
550 178
550 28
550 352
550 921
550 2072
550 2071
550 235
550 922
550 185
550 925
550 472
550 928
550 344
550 2
550 38
550 867
550 229
550 247
550 355
550 394
550 227
551 655
551 656
551 550
551 657
551 32
552 1361
552 1362
552 978
552 178
552 32
552 230
552 2024
552 237
552 2
553 32
553 253
553 38
553 550
553 23
553 403
553 46
553 72
553 28
554 555
554 556
554 268
554 557
554 406
554 558
554 23
554 9
554 28
554 32
554 559
554 340
554 560
554 561
554 244
554 2
554 266
554 562
554 252
554 38
554 263
554 31
554 25
554 178
554 257
555 556
555 554
555 268
555 557
555 558
555 406
555 178
555 23
555 28
556 555
556 554
556 268
556 557
556 558
556 406
556 178
556 23
556 28
557 262
557 268
557 558
557 555
557 556
557 554
557 406
557 178
557 23
558 262
558 268
558 557
558 554
558 406
558 555
558 556
559 29
559 32
559 230
559 867
559 340
559 49
559 698
559 2
559 995
560 561
560 1894
560 28
560 23
560 491
560 112
560 24
560 69
560 25
560 1532
560 31
560 58
560 39
560 10
560 355
560 413
560 244
560 1907
560 36
560 34
560 178
560 1908
560 1051
561 560
561 1894
561 28
561 491
561 112
561 554
561 406
561 1384
561 53
561 23
562 1135
562 9
562 1136
562 10
562 69
562 255
562 28
562 1137
562 250
562 252
562 178
562 1138
563 554
563 32
564 2261
564 374
564 251
564 23
564 26
565 566
565 567
566 46
566 367
566 544
566 543
566 609
567 566
567 565
568 569
568 100
568 570
568 101
568 571
568 572
569 568
570 2395
570 2394
570 391
571 101
571 1639
571 1113
571 208
571 100
571 568
572 1270
572 2075
572 883
572 101
572 1268
572 1269
572 837
572 100
572 191
572 306
572 124
572 418
573 138
573 139
573 137
573 145
573 574
574 1423
574 454
574 456
574 1427
574 437
574 137
574 145
574 138
574 139
574 28
575 346
575 355
575 248
575 23
575 178
576 24
576 25
576 32
576 23
577 112
577 329
577 23
577 28
577 578
577 579
578 23
578 25
578 329
578 28
578 685
578 577
579 385
579 2
579 176
579 249
579 23
579 28
579 577
579 1522
580 328
580 2
580 28
580 581
580 529
581 328
581 28
581 580
581 2
582 28
582 23
582 583
582 34
583 582
584 46
584 545
584 585
584 165
585 46
585 584
585 545
585 165
586 1050
587 588
587 589
587 590
587 10
587 270
588 587
588 589
589 588
589 587
589 1236
589 1237
590 1775
590 587
590 1776
590 10
590 270
591 595
591 593
591 507
591 592
591 594
592 591
592 507
592 593
592 594
592 595
592 32
593 595
593 591
593 594
593 507
593 592
594 230
594 593
594 591
594 507
594 592
594 32
594 185
594 550
595 591
595 593
595 507
595 592
596 1123
596 507
596 32
596 1124
596 1125
597 1701
597 185
597 32
597 598
597 1702
597 507
597 619
597 395
598 1938
598 265
598 1939
598 1940
598 24
598 25
598 72
598 37
598 235
598 32
598 58
598 597
598 106
598 507
598 110
598 1458
598 1455
598 23
598 1714
598 1757
598 363
599 243
599 32
599 237
599 347
599 56
599 57
600 340
600 243
600 32
600 253
600 178
600 230
601 1437
601 1438
601 1439
601 1440
601 367
601 507
603 604
604 603
604 605
604 606
605 28
605 2054
605 604
606 2140
606 2141
606 604
606 2142
607 388
607 389
607 38
608 117
608 521
608 733
608 176
608 791
608 792
608 716
608 722
608 480
608 723
608 477
608 732
608 793
608 478
608 479
608 734
608 735
608 248
608 253
608 243
608 361
608 56
608 57
608 24
608 37
608 795
608 103
608 796
608 797
608 798
608 799
608 10
608 515
608 513
608 421
608 319
608 422
608 425
608 426
608 427
608 428
608 429
608 430
608 431
608 432
608 794
609 1119
609 583
609 46
610 23
610 24
610 10
611 81
611 800
611 10
612 460
612 681
612 682
612 92
612 100
612 1269
612 28
612 2
612 684
613 32
613 614
613 340
613 615
613 616
613 617
613 253
613 243
613 618
613 619
613 507
613 620
613 58
614 1932
614 662
614 2189
614 2
614 151
614 695
614 1707
614 32
614 1065
614 230
614 350
614 613
614 105
614 942
614 228
614 867
614 253
614 243
614 361
614 69
614 342
614 924
614 165
614 192
614 42
614 2327
614 24
614 25
614 407
614 106
614 391
614 405
614 178
614 925
614 36
614 495
614 404
614 1066
614 10
614 55
614 23
614 28
614 31
614 33
614 34
614 58
614 250
614 137
614 138
614 1780
614 370
614 270
614 153
614 2328
614 100
615 1283
615 815
615 1284
615 32
615 185
615 35
615 543
615 613
615 616
615 617
615 253
615 243
615 244
615 347
615 1285
616 32
616 347
616 29
616 13
617 1567
617 1366
617 65
617 1566
617 516
617 240
617 32
617 110
618 1664
618 156
619 1702
619 32
619 868
619 515
619 10
620 2124
620 613
621 622
621 623
622 831
622 621
623 621
623 1034
624 413
624 57
624 430
624 625
625 624
625 1821
625 1449
625 1946
625 1945
625 1450
625 1947
625 368
625 367
625 46
625 35
625 1446
626 49
626 244
626 58
626 1502
626 176
626 32
626 23
626 9
626 2310
626 29
627 1377
627 1378
627 46
627 509
627 368
627 367
627 1047
627 1192
627 228
627 824
627 828
627 58
628 629
628 630
628 631
628 632
628 633
628 634
628 151
629 630
629 632
629 631
629 628
629 633
630 629
630 632
630 631
630 628
630 633
631 629
631 630
631 632
631 628
631 633
632 629
632 630
632 628
632 631
632 633
633 629
633 630
633 632
633 631
633 628
634 628
634 151
635 10
635 23
635 25
635 24
635 42
635 57
635 638
635 36
635 43
635 404
635 636
636 25
636 404
636 495
636 1992
636 178
636 361
636 800
636 58
636 394
636 39
636 24
636 42
637 56
637 57
637 2275
637 244
637 23
638 650
638 23
638 2
638 28
638 24
638 112
638 37
638 36
638 355
638 244
638 25
638 56
638 57
638 404
638 31
638 395
638 58
638 42
638 494
638 415
638 390
639 640
639 262
639 28
639 178
640 639
640 262
640 28
640 178
641 642
641 643
641 644
641 645
641 100
641 646
642 644
642 641
642 643
643 642
643 641
643 644
643 100
644 641
644 643
644 642
644 645
644 568
644 797
644 1420
644 191
644 100
644 101
644 1552
644 1551
645 642
645 641
645 644
646 641
646 643
647 648
647 649
648 649
648 647
648 27
649 648
649 647
649 27
650 638
651 566
651 652
652 566
652 651
653 654
654 653
654 410
654 408
654 1108
654 2183
654 2184
654 23
655 657
655 656
655 551
655 550
656 655
656 551
656 550
656 657
657 655
657 656
657 551
657 550
658 659
658 660
658 661
658 662
658 663
659 662
659 658
659 661
659 660
659 663
660 659
660 658
660 661
660 663
660 115
660 1646
661 39
661 23
661 659
661 658
661 660
661 662
661 663
662 659
662 658
662 661
662 660
662 1988
662 1831
662 1646
662 1647
662 1649
662 1516
662 614
662 1989
663 113
663 201
663 1909
664 357
664 359
664 1075
664 358
664 375
664 2330
664 2331
664 2258
664 2329
664 107
664 682
664 191
664 306
664 100
664 104
664 151
664 193
664 101
664 124
664 112
664 2
664 28
665 191
665 193
665 306
665 1828
665 1827
665 1354
665 395
666 101
666 305
666 193
666 191
666 306
667 1007
667 1008
668 669
668 192
668 670
668 671
668 100
669 670
669 668
669 192
669 614
669 287
669 671
669 695
669 807
670 695
670 669
670 151
670 192
670 668
670 671
671 1008
671 287
671 669
671 668
671 670
671 100
672 847
672 909
672 20
672 67
672 842
672 843
672 3
673 73
673 674
673 675
673 928
673 2219
673 3
673 60
673 410
673 35
673 243
673 23
673 273
674 673
674 73
674 675
674 928
674 2219
675 673
675 73
675 674
675 928
675 2219
676 1536
676 1537
676 1534
676 63
676 61
676 1535
676 2110
676 60
676 410
676 673
676 674
676 675
676 37
676 2187
677 23
677 435
677 112
677 118
677 820
677 145
677 700
677 701
677 821
677 25
677 228
677 61
677 1452
678 23
678 679
679 1765
679 678
680 355
681 682
681 92
681 93
681 460
681 612
681 683
681 684
681 28
681 23
681 2
682 681
682 92
682 93
682 1162
682 1163
682 181
682 1164
682 1165
682 1166
682 664
682 357
682 359
682 1075
682 28
682 369
682 1167
682 460
682 612
682 2
683 460
683 681
683 684
684 612
684 681
684 366
684 203
685 30
685 686
685 687
685 23
685 112
685 329
685 28
685 52
685 578
686 687
686 1777
686 138
686 139
687 686
687 1777
688 28
688 110
688 40
688 23
688 53
688 25
688 36
688 250
689 690
689 691
689 254
689 692
689 253
689 425
689 426
689 427
689 693
689 384
689 50
689 248
689 250
690 689
690 691
690 254
690 692
690 693
690 253
690 694
691 689
691 254
691 692
691 690
691 253
691 425
691 426
691 427
691 693
691 23
691 250
691 176
691 248
692 691
692 689
692 254
692 693
692 253
692 425
692 426
692 427
692 690
692 28
692 23
692 24
692 37
692 1302
693 254
693 692
693 690
693 689
693 691
693 253
693 56
693 57
693 23
694 1813
694 1814
694 1815
694 1816
694 1817
694 1818
694 807
694 1819
694 28
694 23
694 24
694 25
694 26
694 1351
694 366
694 32
694 340
694 936
694 29
694 1820
694 247
694 472
694 1349
694 347
694 185
694 31
694 698
694 153
694 2
694 205
694 254
694 1503
694 36
694 69
694 110
694 73
694 384
694 46
694 368
694 928
694 112
695 2034
695 670
695 151
695 100
695 614
695 669
696 228
696 697
696 176
696 248
696 23
696 253
696 698
696 110
696 699
697 696
697 175
697 1206
697 1207
697 1205
698 1587
698 343
698 340
698 32
698 2092
698 694
698 696
698 2
698 2383
698 230
698 342
698 110
698 453
698 246
698 41
698 1350
698 185
698 237
698 226
698 1349
698 31
698 347
699 1498
699 1079
699 330
699 1856
699 1086
699 100
699 32
699 696
700 145
700 701
700 702
701 145
701 700
701 702
701 820
701 677
701 435
701 118
701 23
702 28
702 145
702 700
702 701
702 820
702 677
702 435
702 118
702 936
702 25
702 23
703 266
703 9
703 361
704 511
704 512
704 513
704 510
704 514
704 72
704 10
704 23
705 706
705 320
705 707
705 708
706 1781
706 120
706 1275
706 270
706 88
706 92
706 93
706 89
706 91
706 94
706 95
706 1733
706 23
706 421
706 319
706 422
706 705
706 153
706 110
707 1577
707 705
708 1285
708 73
708 674
708 705
708 1359
709 3
709 58
709 73
709 46
709 178
710 25
711 712
711 713
711 170
711 102
711 100
712 713
712 711
712 170
712 102
712 100
713 712
713 711
713 170
713 171
713 102
713 100
714 715
714 276
714 58
715 1280
715 1279
715 109
715 23
716 463
716 717
716 151
716 718
716 719
716 720
716 721
716 519
716 722
716 480
716 521
716 723
716 724
716 725
716 520
716 726
716 727
716 511
716 517
716 518
716 121
716 728
716 729
716 730
716 731
716 477
716 608
716 732
716 478
716 479
716 733
716 176
716 734
716 735
716 72
716 736
717 463
717 716
717 719
717 724
717 726
717 727
717 737
717 440
717 515
717 720
717 721
717 519
717 722
717 725
717 520
717 511
717 517
717 518
717 480
717 521
717 723
717 121
717 738
717 739
717 740
717 513
717 151
717 718
717 10
717 360
717 72
718 719
718 151
718 720
718 716
718 721
718 519
718 728
718 729
718 730
718 731
718 724
718 722
718 725
718 520
718 717
718 726
718 727
718 511
718 517
718 480
718 518
718 521
718 723
718 121
718 738
718 739
718 1779
718 154
719 728
719 10
719 151
719 718
719 720
719 716
719 721
719 519
719 724
719 717
719 726
719 727
719 722
719 725
719 520
719 511
719 480
719 517
719 521
719 518
719 723
719 121
719 729
719 730
719 731
719 737
719 440
719 513
719 515
719 360
719 72
719 55
720 151
720 718
720 719
720 716
720 721
720 519
720 724
720 722
720 725
720 520
720 717
720 726
720 727
720 738
720 739
720 511
720 517
720 480
720 518
720 521
720 723
720 121
720 728
720 729
720 730
720 731
720 10
720 72
721 151
721 718
721 719
721 720
721 716
721 519
721 725
721 738
721 739
721 724
721 722
721 520
721 717
721 726
721 727
721 480
721 521
721 723
721 511
721 517
721 518
721 121
721 728
721 729
721 730
721 731
721 72
721 993
721 704
721 513
722 716
722 480
722 521
722 723
722 477
722 608
722 732
722 478
722 479
722 176
722 733
722 734
722 735
722 791
722 792
722 151
722 718
722 719
722 720
722 721
722 519
722 724
722 725
722 520
722 717
722 726
722 727
722 738
722 739
722 511
722 517
722 518
722 121
722 303
723 716
723 722
723 480
723 521
723 732
723 734
723 735
723 257
723 477
723 608
723 478
723 479
723 733
723 176
723 791
723 719
723 720
723 721
723 519
723 724
723 725
723 520
723 717
723 726
723 727
723 738
723 739
723 511
723 517
723 518
723 121
723 151
723 718
723 417
723 239
723 72
723 10
723 515
723 513
723 1263
723 729
724 719
724 717
724 726
724 727
724 151
724 718
724 720
724 716
724 721
724 519
724 722
724 725
724 520
724 511
724 480
724 517
724 521
724 518
724 723
724 121
724 738
724 739
724 737
724 440
724 515
724 1429
724 1996
725 721
725 738
725 739
725 151
725 718
725 719
725 720
725 716
725 519
725 724
725 722
725 520
725 717
725 726
725 727
725 511
725 517
725 480
725 521
725 723
725 518
725 121
725 994
725 993
726 2209
726 719
726 724
726 717
726 727
726 737
726 440
726 515
726 720
726 716
726 721
726 519
726 722
726 725
726 520
726 511
726 480
726 517
726 518
726 521
726 723
726 121
726 738
726 739
726 151
726 718
726 111
726 72
727 719
727 360
727 724
727 717
727 726
727 737
727 440
727 515
727 720
727 716
727 721
727 519
727 722
727 725
727 520
727 511
727 480
727 517
727 518
727 521
727 723
727 121
727 738
727 739
727 151
727 718
727 72
728 151
728 719
728 10
728 729
728 730
728 718
728 731
728 720
728 716
728 721
728 519
728 513
728 515
729 728
729 151
729 730
729 718
729 731
729 719
729 720
729 716
729 721
729 519
729 10
729 23
729 1657
729 72
729 480
729 38
729 389
730 728
730 151
730 729
730 731
730 718
730 719
730 720
730 716
730 721
730 519
730 72
731 730
731 728
731 151
731 729
731 718
731 719
731 720
731 716
731 721
731 519
731 388
732 239
732 723
732 734
732 735
732 716
732 722
732 480
732 521
732 477
732 608
732 478
732 479
732 733
732 791
732 176
732 257
732 417
733 608
733 521
733 176
733 795
733 248
733 253
733 243
733 361
733 56
733 57
733 24
733 37
733 716
733 722
733 480
733 723
733 477
733 732
733 478
733 479
733 734
733 735
733 10
733 515
733 513
733 254
733 792
733 23
733 791
734 239
734 732
734 723
734 735
734 480
734 521
734 477
734 608
734 478
734 479
734 733
734 791
734 176
734 716
734 722
734 257
734 23
734 513
734 511
734 514
734 361
735 239
735 732
735 723
735 734
735 480
735 521
735 477
735 608
735 478
735 479
735 733
735 791
735 176
735 716
735 722
735 257
735 704
735 513
736 239
736 2
736 257
736 732
736 723
736 735
737 717
737 440
737 515
737 719
737 724
737 726
737 727
737 740
737 513
737 10
737 360
737 920
737 405
737 23
738 721
738 725
738 739
738 719
738 720
738 716
738 519
738 724
738 722
738 520
738 717
738 726
738 727
738 511
738 480
738 517
738 518
738 521
738 723
738 121
738 151
738 718
738 994
738 995
738 993
739 721
739 725
739 738
739 719
739 720
739 716
739 519
739 724
739 722
739 520
739 717
739 726
739 727
739 511
739 480
739 517
739 518
739 521
739 723
739 121
739 151
739 718
739 994
739 995
739 993
740 794
740 793
740 440
740 717
740 737
740 515
740 513
740 248
740 259
740 260
740 791
740 792
740 10
740 360
740 384
740 2047
740 1749
740 1523
740 1407
740 361
740 176
740 24
740 37
740 56
740 57
740 243
741 742
741 743
741 366
742 2224
742 912
742 2
742 928
742 741
742 743
743 742
743 741
743 366
744 745
745 744
745 28
745 10
745 251
746 1168
746 1169
746 1170
746 1171
746 201
746 370
746 1172
746 1173
746 867
746 32
746 192
746 56
746 57
746 253
746 243
746 23
746 24
746 25
746 10
746 800
746 58
746 36
746 1174
747 804
747 25
747 24
747 431
747 432
747 1326
747 176
747 72
747 354
747 110
747 178
747 23
747 303
747 1994
748 167
748 31
748 32
748 38
748 749
748 106
748 342
748 750
748 626
748 401
749 1347
749 1348
749 32
749 203
749 352
749 230
749 550
749 228
749 227
749 1349
749 923
749 965
749 229
749 559
749 244
749 56
749 57
749 1350
750 23
750 401
750 748
750 167
751 752
751 753
751 754
752 751
752 754
752 753
753 752
753 751
753 754
753 78
753 68
754 67
754 20
754 842
754 843
754 845
754 752
755 113
756 2
756 529
756 392
756 757
756 530
756 758
756 528
757 392
757 2
757 334
757 530
757 756
757 529
757 528
758 2
758 528
758 392
758 757
758 530
758 756
758 529
759 2314
759 329
759 334
760 761
760 329
760 28
761 760
761 329
761 28
762 334
762 192
762 1000
762 225
763 610
763 334
763 949
763 23
763 24
764 1755
764 610
764 334
764 23
764 24
765 322
766 767
766 354
767 354
767 766
767 345
767 23
768 100
769 27
769 213
769 64
769 3
770 2410
770 2411
770 2059
770 2412
770 176
771 772
771 676
771 773
772 1453
772 771
772 676
772 773
773 2333
773 2260
773 501
773 2334
773 1098
773 205
774 3
774 775
775 782
775 308
775 783
776 777
776 778
776 779
776 780
776 781
776 774
776 28
777 776
777 779
777 780
777 778
778 776
778 779
778 780
778 777
779 781
779 776
779 780
779 778
779 777
779 1408
780 779
780 776
780 781
780 778
780 777
781 779
781 776
781 780
781 489
782 117
782 775
782 1830
783 1804
783 1131
783 350
783 405
784 789
784 790
784 100
784 644
784 151
784 390
785 201
785 24
785 370
785 55
785 25
786 201
786 787
786 788
786 976
786 746
787 201
787 786
787 788
787 976
787 746
788 201
788 786
788 787
788 976
788 746
789 790
789 784
790 784
790 789
791 285
791 608
791 521
791 794
791 176
791 248
791 733
791 259
791 260
791 792
791 253
791 243
791 361
791 56
791 57
791 24
791 37
791 795
791 716
791 722
791 740
791 480
791 793
791 440
791 477
791 732
791 478
791 479
791 734
791 735
791 10
791 729
792 795
792 176
792 248
792 253
792 243
792 361
792 57
792 56
792 24
792 37
792 254
792 23
792 733
792 260
792 259
793 794
793 740
793 440
793 608
793 521
793 248
793 176
793 260
793 259
793 791
793 792
793 733
793 2047
793 384
793 1749
793 1523
793 1407
793 103
793 796
793 797
793 798
793 799
793 24
793 253
793 254
793 112
794 740
794 793
794 248
794 260
794 259
794 791
794 792
794 440
794 176
794 253
794 243
794 361
794 56
794 57
794 24
794 37
794 384
794 2047
794 1749
794 1523
794 1407
794 10
795 792
795 176
795 248
795 733
795 791
795 253
795 254
795 243
795 361
795 56
795 57
795 24
795 37
795 608
795 521
795 23
795 260
795 259
796 797
796 103
796 798
796 799
797 796
797 798
797 799
797 103
797 100
797 102
797 158
797 104
797 1640
798 796
798 797
798 799
798 103
798 1803
799 103
799 796
799 797
799 798
800 1568
800 248
800 176
800 23
800 24
800 112
800 25
800 36
800 2
800 361
800 10
800 746
800 228
800 244
800 31
801 839
801 41
801 175
801 176
801 1273
802 176
802 249
803 153
803 28
803 23
803 178
803 1533
803 937
804 747
804 25
804 24
804 431
804 432
804 1326
804 176
804 72
804 1005
804 354
804 110
804 178
804 23
804 303
804 1994
805 28
805 2479
805 176
805 2480
806 807
806 694
807 1814
807 1815
807 1834
807 694
807 1813
807 1819
807 806
807 100
807 669
807 104
808 809
808 810
808 811
809 808
809 810
809 811
809 495
809 424
810 808
810 809
810 811
810 145
811 808
811 809
811 810
812 229
813 83
813 189
813 285
814 815
814 191
814 100
814 816
814 817
814 818
814 819
814 151
815 1283
815 615
815 100
816 814
817 151
817 1676
817 1294
817 814
817 100
818 814
818 819
819 1761
819 151
819 814
819 818
819 100
820 677
820 435
820 118
820 702
820 145
820 701
820 112
821 1428
821 112
821 28
821 491
821 560
821 1051
821 1532
821 1826
821 677
821 495
821 36
821 178
821 43
821 10
821 23
821 35
821 205
821 413
821 244
821 396
821 24
821 155
821 403
821 56
821 57
821 37
821 2
821 31
821 72
821 411
821 34
821 33
821 58
821 110
821 25
821 355
821 435
821 118
821 153
821 374
821 111
821 254
821 404
821 431
821 422
821 228
821 989
822 823
822 124
823 822
823 124
824 822
824 825
824 826
824 328
824 613
824 395
824 58
824 827
824 36
824 828
824 46
824 627
824 829
824 830
825 826
825 824
825 328
825 613
826 825
826 824
826 328
826 613
827 2461
827 1306
827 28
827 46
827 248
827 73
827 250
827 42
827 37
827 36
827 824
827 178
827 828
827 58
827 23
827 25
827 24
828 1221
828 46
828 1222
828 1223
828 1224
828 830
828 829
828 368
828 367
828 1192
828 1047
828 36
828 824
828 1225
828 106
828 483
829 1317
829 1318
829 830
829 828
829 367
829 46
829 1047
829 228
829 368
830 1317
830 1318
830 829
830 828
830 367
830 46
830 228
830 368
831 23
831 622
832 833
833 1293
833 832
833 103
833 100
833 1294
833 151
833 695
833 398
834 32
835 836
835 187
835 170
835 2423
835 100
836 835
836 187
836 170
837 838
837 124
837 41
837 1268
837 1269
837 883
837 572
837 1270
837 100
837 104
837 101
837 1271
837 103
838 124
838 837
838 41
839 41
839 175
839 801
840 854
840 855
840 28
840 857
840 31
840 153
840 23
840 858
840 10
840 55
840 273
840 240
840 245
840 859
840 110
840 453
840 69
840 37
840 2
841 23
842 672
842 67
842 20
842 843
842 754
842 845
842 909
842 847
843 2289
843 2290
843 67
843 2291
843 842
843 20
843 754
843 845
843 27
843 62
843 60
843 909
843 847
843 672
844 19
844 22
844 20
844 846
844 325
844 4
844 67
845 754
845 67
845 752
846 194
846 512
846 20
846 4
846 850
846 849
846 325
846 67
846 852
846 27
847 672
847 909
847 67
847 20
847 842
847 843
847 3
848 1061
848 20
848 249
848 60
848 3
848 1155
849 1310
849 1015
849 850
849 1011
849 4
849 325
849 1012
849 1367
849 1368
849 1369
849 1370
849 1010
849 1009
849 1371
849 1373
849 1372
849 1375
849 1374
849 1365
849 1366
849 1013
849 1014
849 321
849 851
849 846
849 20
850 321
850 851
850 849
850 4
850 1310
850 1015
850 1075
850 375
850 28
851 325
851 850
851 849
851 321
852 27
852 3
852 20
852 846
853 349
854 840
854 855
854 856
854 72
854 28
854 31
855 854
855 840
855 31
855 1744
855 230
855 32
856 2031
856 1746
856 1747
856 273
856 274
856 55
856 369
856 28
856 72
856 2
857 54
857 28
857 840
857 153
857 23
857 858
857 31
857 246
857 110
858 2239
858 153
858 31
858 857
858 800
858 246
858 54
858 302
859 1139
859 176
859 23
859 28
859 840
859 258
859 110
859 41
859 184
860 1149
860 1150
860 1151
860 1152
861 862
861 460
861 863
861 2
861 864
861 24
861 248
862 863
862 460
862 861
863 862
863 460
863 1197
864 1988
864 460
864 863
864 862
865 227
866 227
867 961
867 962
867 185
867 963
867 32
867 230
867 253
867 247
867 58
867 106
867 370
867 550
867 229
867 31
867 223
867 344
867 746
867 559
867 964
867 749
867 965
867 340
867 472
867 868
867 10
868 2311
868 2312
868 32
868 227
868 352
868 2186
868 1702
868 619
869 978
870 266
870 10
870 23
870 24
870 25
871 2213
871 1451
871 227
872 227
872 178
872 23
873 32
873 868
873 874
874 873
875 876
876 875
876 58
877 878
877 879
878 877
878 879
878 1410
879 1410
879 878
879 877
879 953
880 132
880 27
881 882
881 100
881 644
881 124
881 103
881 883
881 394
882 1658
882 881
883 1268
883 1269
883 837
883 572
883 100
883 23
883 28
883 881
884 885
884 886
884 887
884 888
884 889
884 890
884 891
884 892
885 884
885 891
885 1404
885 892
885 888
885 889
885 890
885 1405
885 897
885 886
885 887
886 1363
886 887
886 888
886 884
886 889
886 1365
886 1013
886 885
886 890
886 895
886 893
887 886
887 888
887 1363
887 1364
887 1365
887 1013
887 884
887 889
887 885
887 890
888 886
888 887
888 889
888 890
888 884
888 885
888 1363
888 1364
888 1365
888 1013
888 893
888 895
889 888
889 890
889 886
889 887
889 884
889 894
889 885
889 893
889 895
889 897
890 888
890 889
890 894
890 895
890 893
890 884
890 885
890 886
890 887
890 897
890 896
891 885
891 1404
891 892
891 884
891 897
891 896
892 885
892 891
892 1404
892 1405
892 897
892 895
892 884
892 896
893 890
893 894
893 895
893 896
893 897
893 888
893 889
893 884
894 890
894 895
894 893
894 888
894 889
894 897
894 896
895 890
895 894
895 893
895 897
895 896
895 892
895 1405
895 888
895 889
896 897
896 895
896 893
896 890
896 894
896 1405
896 892
896 1404
897 892
897 1405
897 896
897 1404
897 885
897 891
897 895
898 253
898 254
899 354
899 178
899 23
900 397
900 23
900 244
900 25
900 178
900 382
900 367
900 368
900 46
900 319
901 23
901 902
902 72
902 901
902 23
903 904
903 905
903 906
904 1620
904 1619
904 903
904 1154
905 903
905 904
906 903
906 1154
907 908
907 100
908 907
909 847
909 672
909 67
909 842
909 843
909 20
909 3
910 44
910 23
910 25
910 24
911 72
911 2
912 913
912 742
912 914
913 912
914 1623
914 912
915 916
916 915
916 1868
917 236
917 919
917 345
917 918
917 237
917 28
917 72
918 917
918 237
918 236
918 919
918 345
918 28
919 228
919 237
919 32
919 236
919 345
919 917
919 918
919 350
919 2
919 185
919 230
920 405
920 550
920 395
920 344
920 32
921 178
921 230
921 185
921 237
921 32
921 550
921 347
922 1683
922 253
922 32
922 185
922 550
922 237
922 38
922 352
922 472
922 35
922 821
923 2191
923 2190
923 2193
923 2192
923 1786
923 1290
923 185
923 32
923 237
923 925
923 341
923 230
923 550
923 344
923 229
923 226
923 243
923 24
923 23
923 25
923 228
923 236
923 3
923 31
924 276
924 23
924 925
924 1285
924 28
924 342
924 32
924 352
924 507
924 226
924 230
924 192
924 614
924 24
924 58
924 329
924 25
924 1065
924 244
924 2
924 178
924 411
924 31
924 33
924 34
924 250
924 138
924 1395
924 73
924 167
924 332
924 1752
924 714
925 924
925 42
925 614
925 276
925 112
925 107
925 23
925 192
925 32
925 230
925 550
925 237
925 923
925 341
925 36
925 24
925 25
925 228
925 1065
925 30
925 1066
925 2
925 28
925 58
925 250
925 138
925 31
925 229
926 243
926 253
926 2
926 28
926 247
926 2347
927 185
927 32
928 2219
928 73
928 673
928 674
928 675
928 23
928 253
928 254
928 25
928 24
928 1632
928 344
928 237
928 32
928 28
928 255
928 384
928 205
928 27
928 214
928 1533
928 26
928 3
928 1046
928 276
929 236
929 345
929 237
929 917
930 931
930 932
930 933
931 930
931 932
931 933
932 930
932 931
932 933
933 1844
933 316
934 208
934 23
934 24
935 81
935 1949
935 2130
935 2131
935 2132
935 2133
935 1948
935 694
935 28
936 28
936 1285
936 257
936 270
936 153
936 23
936 246
936 273
936 274
936 55
936 239
936 10
936 694
936 32
936 2
936 9
936 25
936 1532
936 1728
937 24
937 28
937 23
937 36
937 9
937 364
937 38
937 255
937 1569
937 359
937 354
937 10
938 939
938 378
938 257
939 938
939 378
939 257
940 9
940 23
941 23
941 239
941 49
941 257
942 754
942 614
942 32
942 105
942 158
943 944
943 106
944 943
944 106
945 946
945 947
945 542
946 614
946 46
946 945
946 947
947 509
947 946
947 945
948 288
949 287
949 288
949 1997
949 1998
949 1999
949 1829
950 951
950 952
951 950
951 1885
952 950
953 879
953 3
954 2095
954 2098
954 2537
954 32
954 2097
954 132
955 132
955 153
956 1311
956 1312
956 1313
956 7
956 192
956 5
956 72
956 1314
956 58
956 46
956 399
957 32
957 237
957 597
958 342
958 959
958 960
959 958
959 342
960 100
960 958
961 963
961 962
961 185
961 867
962 961
962 185
962 867
962 32
962 28
963 961
963 185
963 867
963 32
963 550
963 31
964 2530
964 2529
964 32
964 347
964 106
964 345
964 229
964 2
964 28
964 614
964 185
964 253
964 352
964 203
964 749
965 32
965 344
965 867
965 749
965 230
965 229
965 559
965 192
965 56
965 57
965 698
965 2220
965 355
966 967
966 968
966 969
966 460
967 966
967 968
967 969
968 969
968 967
968 966
969 968
969 967
969 966
970 165
970 971
971 970
972 973
972 974
972 975
972 460
973 972
973 974
973 975
973 460
974 972
974 973
974 975
974 460
975 972
975 973
975 974
975 460
976 201
976 786
976 787
976 788
976 746
977 2
977 23
977 2090
978 552
978 69
978 27
978 928
978 39
978 1283
978 28
978 354
978 30
978 178
978 397
978 44
978 244
978 55
978 2
978 58
978 239
978 31
979 104
979 100
979 1641
979 101
980 981
980 404
980 982
980 983
980 984
981 980
981 404
981 982
981 103
981 100
982 2175
982 2176
982 404
982 2134
982 2135
983 980
983 984
984 980
984 983
985 986
985 987
985 988
985 989
986 985
986 987
986 988
986 989
987 985
987 986
987 988
988 985
988 987
988 986
988 989
989 985
989 987
989 986
989 988
989 112
989 560
989 491
989 1051
989 436
989 821
989 1532
989 677
989 1826
990 28
990 23
990 24
990 25
990 253
990 1916
990 243
990 32
990 230
990 38
990 1669
990 178
990 55
990 299
990 1472
990 388
990 43
990 333
990 26
990 254
990 1172
990 1872
990 106
990 1911
991 31
991 111
991 55
992 28
992 39
992 23
992 454
992 38
992 33
992 34
992 303
992 112
992 31
992 333
992 2
992 55
992 176
992 1843
993 151
993 994
993 725
993 738
993 739
993 31
993 81
993 660
993 1516
994 725
994 721
994 738
994 739
994 995
994 993
994 2
994 28
994 1075
994 1095
994 370
994 107
994 332
994 49
994 32
994 38
994 27
994 1097
995 993
995 994
995 725
995 721
995 738
995 739
995 49
995 184
995 340
995 32
995 1351
995 185
995 226
995 1349
995 559
995 1669
996 997
996 347
996 998
996 999
997 998
997 996
997 347
998 997
998 996
998 347
998 32
999 997
999 996
999 347
999 32
999 185
999 2
1000 1001
1000 1002
1000 3
1001 1065
1001 1000
1001 1002
1002 1000
1003 264
1003 1004
1003 1005
1004 264
1004 1003
1004 1005
1004 1770
1005 264
1005 1003
1005 1004
1005 25
1005 72
1005 804
1005 747
1006 27
1006 62
1006 3
1006 60
1007 667
1008 671
1008 287
1008 667
1008 100
1009 1010
1009 1011
1009 1012
1009 1013
1009 1014
1009 1015
1009 849
1009 4
1009 325
1009 1016
1010 1013
1010 1014
1010 1015
1010 1009
1010 1011
1010 1012
1010 849
1010 1365
1010 1366
1010 1367
1010 1368
1010 1310
1010 1363
1010 1364
1010 325
1010 1016
1011 1009
1011 1010
1011 1012
1011 849
1011 325
1011 4
1011 1015
1011 1310
1011 1013
1011 1014
1012 1009
1012 1010
1012 1011
1012 849
1012 4
1012 325
1012 1015
1012 1013
1012 1014
1013 1363
1013 1364
1013 1365
1013 1014
1013 1015
1013 1010
1013 1366
1013 1367
1013 1368
1013 1310
1013 886
1013 887
1013 888
1013 1009
1013 1011
1013 1012
1014 1013
1014 1015
1014 1010
1014 1363
1014 1364
1014 1365
1014 1366
1014 1367
1014 1368
1014 1310
1014 1009
1014 849
1014 1011
1014 1012
1015 1013
1015 1014
1015 1010
1015 1310
1015 849
1015 1009
1015 1011
1015 1012
1015 1365
1015 1366
1015 1367
1015 1368
1015 850
1015 1363
1015 1364
1015 4
1015 325
1016 1009
1016 1010
1016 1011
1016 1012
1016 28
1017 278
1017 1018
1017 69
1017 28
1018 278
1018 1017
1019 1020
1019 278
1020 278
1020 1019
1021 2
1022 157
1022 72
1022 1023
1022 255
1023 1055
1023 1072
1023 1353
1023 1352
1023 1354
1023 72
1023 112
1023 255
1023 1022
1024 270
1024 10
1025 112
1026 208
1026 1027
1027 208
1027 1026
1027 1752
1027 614
1028 1029
1028 1030
1028 83
1028 1031
1029 1028
1029 83
1029 189
1030 1944
1030 83
1030 189
1030 1777
1030 1028
1030 1029
1031 83
1031 189
1031 1028
1031 3
1032 137
1033 1034
1033 1035
1034 623
1034 1033
1035 1033
1035 2041
1036 35
1037 23
1037 83
1037 189
1037 1258
1037 1259
1037 139
1037 285
1038 285
1038 83
1038 189
1039 1040
1040 1039
1040 491
1041 1042
1041 32
1041 58
1041 31
1041 507
1041 243
1041 178
1042 1041
1042 32
1042 178
1043 28
1044 1045
1045 1752
1045 2006
1045 1479
1045 103
1045 100
1045 26
1045 23
1045 2
1045 378
1045 25
1045 379
1045 360
1045 2007
1045 1339
1045 2008
1045 1044
1045 1081
1045 1376
1045 1027
1045 1769
1045 1744
1045 2009
1045 2010
1045 353
1045 2011
1045 2012
1045 2013
1045 2014
1045 2015
1045 2016
1045 2017
1046 398
1046 72
1046 35
1046 32
1046 598
1046 38
1046 352
1046 472
1046 1047
1046 31
1047 2413
1047 2414
1047 2415
1047 2416
1047 1192
1047 509
1047 46
1047 828
1047 829
1047 1442
1047 192
1047 178
1048 10
1048 1049
1049 10
1049 1048
1050 127
1050 586
1051 1052
1051 1053
1051 1054
1051 37
1051 23
1051 112
1051 821
1051 491
1051 560
1051 72
1051 436
1052 1053
1052 1051
1052 1055
1052 23
1052 72
1053 1052
1053 1051
1053 1055
1053 23
1054 1051
1054 1052
1054 27
1054 320
1054 1732
1054 3
1054 1982
1054 23
1054 112
1055 1352
1055 1023
1055 1353
1055 1354
1055 25
1055 382
1055 23
1055 72
1055 255
1055 1022
1055 411
1055 489
1055 24
1055 37
1055 404
1055 73
1055 1355
1055 178
1055 1356
1055 28
1055 36
1055 2
1055 31
1056 1057
1057 299
1057 1056
1058 1059
1058 1060
1058 490
1058 176
1058 300
1058 24
1059 1058
1059 1060
1059 490
1060 1058
1060 1059
1060 490
1061 848
1061 20
1061 3
1061 1155
1062 362
1062 1063
1062 1064
1062 56
1062 57
1062 24
1063 362
1063 1062
1063 1064
1063 56
1063 57
1063 24
1064 362
1064 1062
1064 1063
1064 56
1064 57
1064 24
1065 192
1065 1752
1065 1707
1065 185
1065 32
1065 341
1065 230
1065 58
1065 13
1065 614
1065 925
1065 405
1065 244
1065 2
1065 31
1065 28
1065 33
1065 34
1065 23
1065 250
1065 138
1065 25
1066 1833
1066 1243
1066 23
1066 614
1066 192
1067 2402
1067 1872
1067 2318
1067 39
1067 253
1067 990
1067 175
1068 828
1068 542
1068 509
1068 58
1068 538
1068 165
1069 1070
1069 1071
1069 547
1070 1071
1070 1714
1070 1702
1070 1069
1071 1070
1072 358
1072 1073
1072 324
1072 9
1072 244
1072 2
1072 23
1072 1959
1072 1055
1072 1023
1072 72
1073 358
1073 1072
1074 375
1074 1240
1074 1075
1074 1241
1074 1242
1074 358
1074 359
1074 357
1075 357
1075 359
1075 375
1075 28
1075 1241
1075 1242
1075 369
1075 107
1075 682
1075 2
1075 358
1075 23
1075 994
1075 328
1075 153
1075 55
1075 1074
1075 24
1075 25
1076 177
1076 24
1076 1077
1077 24
1077 1076
1078 32
1078 347
1078 28
1078 2
1078 185
1078 237
1078 352
1078 194
1078 230
1078 1046
1079 1498
1079 1080
1080 1079
1081 1045
1081 1082
1081 1083
1082 1083
1082 2018
1082 2019
1082 2020
1082 1845
1083 2546
1083 2547
1084 1085
1084 192
1084 1086
1084 1087
1085 1086
1085 192
1085 1084
1085 1522
1085 151
1086 192
1086 1085
1086 1084
1086 699
1086 1950
1087 1403
1088 1089
1088 1090
1088 1091
1088 1092
1088 1093
1088 409
1088 182
1088 181
1088 1094
1089 1088
1089 1090
1089 1091
1089 1092
1089 1093
1089 409
1089 182
1089 181
1089 1094
1090 1088
1090 1089
1090 181
1090 182
1090 1091
1090 1164
1090 1165
1090 1092
1090 1093
1090 1261
1090 1094
1090 1162
1091 1088
1091 1089
1091 181
1091 182
1091 1090
1091 1164
1091 1165
1091 1093
1091 1092
1091 1261
1091 286
1091 1406
1091 409
1091 1162
1091 1888
1091 1094
1092 1090
1092 1088
1092 1089
1092 181
1092 182
1092 1091
1092 1164
1092 1165
1092 1093
1092 1261
1093 1091
1093 1088
1093 1089
1093 181
1093 182
1093 1090
1093 1092
1093 1164
1093 1165
1093 1261
1093 1406
1093 409
1094 181
1094 1888
1094 1090
1094 1091
1094 1162
1094 182
1095 110
1095 994
1095 1075
1095 28
1095 250
1095 27
1095 1096
1095 1097
1095 38
1095 32
1095 29
1095 694
1095 112
1095 333
1095 2
1095 25
1095 23
1096 27
1096 1095
1096 994
1096 1097
1096 250
1096 38
1096 49
1096 32
1096 29
1096 694
1097 694
1097 27
1097 250
1097 38
1097 49
1097 32
1097 29
1097 1095
1097 1096
1097 366
1098 1099
1098 1100
1098 37
1098 205
1098 773
1099 1098
1099 1100
1100 1099
1100 1098
1100 1953
1100 1588
1101 1102
1101 1103
1101 37
1102 1103
1102 1101
1103 1102
1103 1101
1104 1105
1105 1104
1105 31
1105 23
1105 24
1105 25
1105 36
1106 1107
1106 23
1106 167
1106 31
1106 24
1106 25
1106 1108
1106 654
1106 408
1106 410
1106 409
1107 1106
1108 410
1108 408
1108 654
1108 2183
1108 2184
1108 23
1109 1110
1109 1111
1109 23
1109 167
1109 31
1109 24
1109 25
1109 560
1109 491
1110 1111
1110 1109
1110 167
1111 1110
1111 1109
1111 167
1112 35
1112 354
1112 24
1112 23
1112 254
1112 175
1113 101
1113 571
1113 572
1113 165
1113 100
1113 191
1114 1115
1114 1116
1115 1114
1115 1116
1115 1383
1115 495
1115 10
1116 1383
1116 1114
1116 1115
1117 1118
1118 493
1118 1117
1119 609
1120 1121
1120 1122
1121 1120
1121 1122
1121 2025
1121 1068
1122 1121
1122 1120
1122 2025
1123 596
1124 32
1124 597
1124 619
1124 398
1124 596
1125 957
1125 32
1125 597
1125 619
1125 398
1126 1127
1126 1004
1127 2471
1127 1126
1127 354
1127 23
1127 72
1128 52
1129 52
1129 23
1129 28
1129 577
1129 385
1130 23
1130 28
1130 800
1130 1608
1130 52
1131 1132
1131 1133
1131 127
1131 783
1131 350
1132 1131
1132 127
1133 1131
1134 302
1134 300
1134 301
1135 562
1135 9
1136 9
1136 1360
1136 562
1137 255
1137 562
1138 25
1138 118
1138 562
1139 859
1140 1141
1140 1142
1140 58
1141 1140
1142 1304
1142 1809
1142 1810
1142 1811
1143 1144
1143 1142
1144 1143
1144 1142
1145 1146
1145 3
1146 1145
1147 28
1147 401
1147 115
1147 116
1148 255
1148 953
1148 23
1148 28
1148 81
1149 860
1149 1150
1149 1151
1150 1149
1150 860
1150 1151
1151 860
1151 1149
1151 1150
1151 23
1152 1489
1152 1490
1152 1491
1152 860
1152 28
1153 277
1153 28
1154 1642
1154 3
1154 906
1154 904
1155 420
1155 848
1155 3
1155 1061
1155 51
1156 253
1156 1157
1157 2337
1157 253
1157 1156
1158 1159
1158 1160
1158 672
1159 2232
1159 1215
1159 2233
1159 1214
1159 1158
1159 1160
1159 672
1160 1159
1160 1158
1160 672
1161 682
1161 44
1161 32
1162 1888
1162 1163
1162 181
1162 107
1162 682
1162 1889
1162 182
1162 1165
1162 1090
1162 1091
1162 1890
1162 1094
1162 357
1162 359
1162 1075
1162 28
1162 369
1162 55
1163 1162
1163 1888
1163 181
1163 182
1163 1090
1163 1091
1163 1164
1163 1165
1163 107
1163 682
1163 1094
1164 182
1164 1890
1164 181
1164 1165
1164 1090
1164 1091
1164 1261
1164 2256
1164 1092
1164 1093
1164 1888
1164 1163
1164 1889
1164 107
1164 682
1164 1162
1164 1094
1165 181
1165 182
1165 1164
1165 1090
1165 1091
1165 1092
1165 1093
1165 1261
1165 1890
1165 1888
1165 1163
1165 1162
1165 1889
1165 107
1165 682
1165 1094
1166 357
1166 359
1166 1075
1166 358
1166 375
1166 107
1166 682
1166 28
1167 682
1167 460
1167 612
1167 28
1167 2
1168 1169
1168 746
1168 1170
1168 1171
1169 1168
1169 746
1169 1170
1169 1171
1170 746
1170 1171
1170 1168
1170 1169
1171 746
1171 1170
1171 1168
1171 1169
1172 107
1172 1752
1172 276
1172 1872
1172 23
1172 28
1172 2
1172 357
1172 24
1172 36
1172 249
1172 270
1172 153
1172 1873
1173 746
1174 1412
1174 746
1174 15
1175 73
1175 58
1175 1021
1175 1176
1175 37
1176 1175
1176 1734
1177 1178
1178 1177
1179 1180
1179 322
1180 1179
1180 132
1180 322
1181 1182
1181 1183
1181 1184
1181 32
1181 1185
1181 342
1181 49
1181 1186
1181 176
1181 1187
1181 300
1182 1183
1182 1181
1182 1184
1183 1182
1183 1181
1183 1184
1184 1182
1184 1183
1184 1181
1185 1181
1186 1681
1186 1350
1186 342
1186 32
1186 1208
1186 1611
1187 2433
1187 2434
1187 1706
1187 32
1187 342
1187 1181
1187 834
1188 1189
1188 1190
1188 1191
1188 1192
1188 1193
1189 1188
1189 1190
1189 1191
1189 1192
1189 1193
1190 2185
1190 1191
1190 1192
1191 2185
1191 1190
1191 1192
1191 205
1191 1047
1191 35
1191 46
1192 1190
1192 1191
1192 2185
1192 1047
1192 46
1192 509
1192 828
1192 829
1192 1442
1192 192
1192 25
1193 1188
1193 1189
1194 252
1194 31
1194 30
1194 72
1194 244
1194 424
1194 2
1194 246
1194 254
1194 205
1194 355
1194 23
1194 58
1194 1195
1194 178
1194 228
1194 112
1194 451
1194 452
1194 28
1195 246
1195 2
1195 58
1195 31
1195 1194
1195 23
1195 355
1195 106
1195 350
1195 391
1195 72
1195 28
1196 53
1196 436
1197 460
1197 863
1197 862
1198 1199
1198 1200
1199 1198
1199 1200
1200 11
1200 1711
1200 1712
1200 1713
1200 46
1200 829
1200 830
1200 58
1200 367
1201 1202
1201 23
1201 1203
1201 24
1201 36
1201 1204
1201 250
1202 1201
1202 23
1203 178
1203 72
1204 23
1204 176
1204 785
1204 24
1204 36
1205 175
1205 1206
1205 697
1205 1207
1206 68
1206 175
1206 697
1206 1207
1206 1205
1206 459
1206 457
1206 773
1206 1453
1207 327
1207 175
1207 1206
1207 697
1207 1205
1207 205
1208 1186
1208 32
1208 342
1209 1210
1210 1209
1210 2335
1211 1212
1211 1213
1211 27
1211 20
1212 1211
1212 1213
1212 27
1212 20
1213 1211
1213 1212
1213 27
1213 450
1213 20
1214 1215
1214 1159
1215 2232
1215 2233
1215 1159
1215 1214
1215 570
1216 1217
1216 1218
1216 1219
1216 100
1216 171
1217 1219
1217 1216
1218 1216
1218 100
1218 1219
1218 171
1219 100
1219 1216
1219 1217
1220 2001
1220 30
1220 2000
1220 339
1221 828
1221 2086
1221 2087
1221 368
1221 1228
1221 155
1221 46
1221 367
1221 106
1221 1821
1221 1450
1221 776
1221 777
1222 1224
1222 1223
1222 828
1222 1225
1222 367
1223 1224
1223 1222
1223 828
1223 1225
1224 1222
1224 1223
1224 828
1225 1222
1225 1223
1225 828
1226 27
1226 320
1226 1227
1226 411
1227 27
1227 60
1227 1226
1228 368
1228 2087
1228 2086
1228 1221
1229 1230
1229 1231
1229 83
1229 1232
1230 1229
1230 83
1230 189
1230 1885
1230 1231
1230 1232
1231 1232
1231 83
1231 189
1232 1231
1232 1230
1232 83
1232 189
1233 1234
1233 234
1234 1233
1234 234
1235 194
1236 2539
1236 2540
1236 1047
1236 1323
1236 1322
1236 46
1236 1190
1236 547
1237 1236
1237 589
1238 345
1239 228
1239 46
1240 1074
1240 375
1240 1243
1241 1242
1241 375
1241 1075
1241 28
1241 357
1241 359
1241 277
1242 1241
1242 375
1242 1075
1242 28
1242 357
1242 359
1243 1066
1243 1833
1243 2203
1243 31
1244 1245
1244 1246
1244 61
1244 63
1245 1244
1245 1246
1245 63
1245 61
1246 1245
1246 1244
1246 61
1246 63
1247 355
1247 1248
1248 1247
1248 23
1248 24
1248 25
1248 192
1248 361
1249 1757
1249 355
1249 37
1249 23
1249 244
1250 1251
1250 549
1250 1252
1250 1253
1250 1254
1250 1255
1251 1250
1251 549
1251 1252
1251 1253
1251 1254
1251 1255
1252 549
1252 1250
1252 1251
1253 549
1253 1255
1253 1250
1253 1251
1253 1254
1254 549
1254 1255
1254 1250
1254 1251
1254 1253
1255 549
1255 1253
1255 1254
1255 1250
1255 1251
1256 354
1256 1397
1256 1500
1257 32
1257 868
1257 227
1257 352
1257 16
1258 23
1258 138
1258 145
1258 137
1259 1545
1259 25
1259 23
1260 2
1260 253
1260 254
1261 2256
1261 1164
1261 182
1261 181
1261 1165
1261 1090
1261 1091
1261 1092
1261 1093
1262 447
1263 774
1263 72
1263 723
1263 729
1263 480
1264 1265
1264 96
1264 77
1265 1264
1266 28
1266 747
1266 1267
1267 2392
1268 104
1268 1640
1268 1269
1268 837
1268 883
1268 572
1268 103
1268 533
1269 572
1269 1268
1269 1270
1269 100
1269 151
1269 695
1269 612
1269 101
1269 23
1269 28
1269 316
1269 1608
1270 2075
1270 572
1271 103
1271 837
1272 56
1272 243
1272 57
1272 23
1273 178
1273 72
1273 253
1273 254
1273 243
1274 2
1274 251
1274 374
1274 88
1274 89
1274 90
1274 91
1274 92
1274 93
1274 94
1274 95
1275 270
1275 23
1275 120
1275 706
1275 1733
1275 421
1275 319
1275 422
1275 10
1275 153
1275 94
1275 121
1275 95
1275 437
1275 369
1275 248
1276 1277
1276 46
1276 1278
1277 415
1277 407
1277 25
1277 614
1277 361
1277 1276
1277 28
1277 24
1277 491
1277 23
1277 560
1277 37
1277 423
1277 428
1277 429
1278 46
1278 1276
1279 1280
1280 1878
1280 1879
1280 1881
1281 1279
1281 1282
1282 1281
1282 32
1283 23
1283 254
1283 815
1283 615
1283 1284
1283 403
1283 1300
1283 355
1283 253
1284 1283
1284 815
1284 615
1284 58
1285 615
1285 540
1286 344
1286 1287
1286 1288
1287 344
1287 1286
1287 32
1287 39
1288 344
1288 1286
1289 185
1289 345
1289 2
1289 32
1289 39
1290 923
1290 552
1290 1361
1290 32
1290 350
1290 344
1290 237
1290 322
1291 1292
1292 127
1292 1291
1293 833
1294 1719
1294 100
1294 833
1294 317
1294 390
1295 1298
1295 1296
1295 403
1295 1297
1295 402
1295 23
1295 28
1295 355
1295 244
1296 1295
1296 1298
1296 403
1296 1297
1296 244
1296 355
1296 25
1296 402
1296 1301
1297 403
1297 1295
1297 1296
1298 1295
1298 1296
1298 403
1298 1297
1298 320
1298 27
1299 411
1299 2
1299 23
1299 28
1299 350
1299 36
1299 44
1299 24
1299 25
1299 178
1299 58
1299 395
1299 37
1299 424
1299 1302
1299 42
1299 31
1299 34
1299 33
1299 404
1299 1055
1299 403
1300 1283
1300 23
1300 403
1301 402
1301 1614
1301 9
1301 244
1301 28
1302 1689
1302 1690
1302 1685
1302 1686
1302 1684
1302 37
1302 23
1302 24
1302 28
1302 73
1302 36
1302 72
1302 25
1302 33
1302 34
1302 31
1302 270
1302 403
1302 375
1302 494
1302 1299
1302 411
1302 404
1302 1055
1302 415
1302 43
1302 42
1302 16
1302 402
1302 355
1303 1304
1303 132
1304 1303
1304 132
1305 1306
1305 1307
1305 566
1306 827
1306 828
1306 367
1306 46
1306 28
1307 1306
1307 1305
1308 37
1308 2127
1309 554
1309 268
1309 558
1309 406
1310 1365
1310 1366
1310 1367
1310 1368
1310 1015
1310 849
1310 1370
1310 1369
1310 1010
1310 1013
1310 1014
1310 1371
1310 1372
1310 1373
1310 1374
1310 1375
1310 1363
1310 1364
1310 850
1310 1011
1310 4
1310 325
1311 956
1311 1312
1311 1313
1311 28
1312 1311
1312 1313
1312 956
1312 28
1313 1311
1313 1312
1313 956
1314 1679
1314 58
1314 956
1314 46
1314 367
1314 1680
1314 35
1315 1316
1315 185
1315 32
1316 1315
1316 185
1317 1318
1317 829
1317 830
1318 1317
1318 829
1318 830
1318 824
1318 36
1319 330
1320 415
1320 1321
1320 23
1321 1320
1321 415
1321 23
1321 178
1321 355
1321 69
1321 28
1321 244
1321 25
1321 24
1321 638
1321 2
1321 31
1321 33
1321 34
1321 255
1321 36
1321 489
1322 1323
1322 1236
1323 1322
1323 1236
1324 204
1325 1326
1325 1327
1325 1328
1325 100
1326 72
1326 25
1326 1325
1326 804
1327 1725
1327 1726
1327 420
1327 1727
1327 102
1327 1325
1327 1328
1327 100
1328 1325
1328 1327
1328 100
1328 1676
1329 1333
1329 1335
1329 1330
1329 1331
1329 137
1329 1332
1329 1334
1329 1336
1330 1329
1330 137
1330 1331
1330 1332
1330 1333
1330 1334
1330 1335
1331 1329
1331 1330
1331 137
1331 1332
1331 1333
1331 1334
1331 1335
1332 1329
1332 1330
1332 137
1332 1331
1332 1333
1332 1334
1332 1335
1333 1334
1333 1335
1333 1329
1333 1330
1333 1331
1333 137
1333 1332
1334 1333
1334 1329
1334 1330
1334 1331
1334 137
1334 1332
1335 1329
1335 1330
1335 137
1335 1331
1335 1332
1336 137
1337 137
1338 137
1339 46
1340 749
1340 1341
1340 1342
1341 1340
1341 1342
1341 1091
1342 1341
1342 1340
1343 1344
1343 303
1343 24
1343 300
1344 1343
1344 303
1344 320
1344 2442
1345 1346
1345 303
1345 244
1345 28
1346 1345
1346 303
1346 244
1346 28
1347 749
1348 749
1348 1347
1348 1351
1349 300
1349 346
1349 38
1349 576
1349 2274
1349 351
1349 230
1349 698
1349 32
1349 247
1349 29
1349 347
1349 559
1349 229
1349 1351
1349 749
1349 995
1349 1350
1349 340
1349 49
1349 237
1350 1411
1350 749
1350 1186
1351 2230
1351 2231
1351 694
1351 35
1351 347
1351 32
1351 1820
1351 1349
1351 184
1351 344
1351 995
1352 1055
1352 1353
1352 1023
1352 1354
1352 23
1353 1055
1353 1352
1353 1023
1353 1354
1353 2
1353 213
1353 58
1353 1298
1354 1353
1354 1352
1354 1023
1354 1055
1354 151
1354 665
1354 614
1355 1857
1355 1858
1355 1485
1355 24
1355 23
1355 1356
1355 493
1355 492
1355 56
1355 57
1355 25
1355 1055
1355 28
1355 34
1355 33
1355 415
1355 58
1356 58
1356 1355
1356 23
1356 493
1356 492
1356 25
1356 1055
1356 2
1356 28
1356 31
1357 110
1357 9
1357 1358
1357 361
1357 257
1357 239
1358 9
1358 1357
1358 255
1359 1523
1359 708
1359 27
1359 330
1359 1968
1359 9
1359 28
1360 330
1360 9
1360 50
1360 49
1360 69
1360 2
1360 10
1360 1580
1360 1136
1361 552
1361 178
1361 32
1361 185
1361 230
1361 1362
1361 352
1362 178
1362 32
1362 2024
1362 1361
1362 552
1363 886
1363 1364
1363 1365
1363 1013
1363 887
1363 888
1363 1366
1363 1014
1363 1015
1363 1010
1363 1367
1363 1368
1363 1310
1364 1363
1364 1365
1364 1013
1364 886
1364 887
1364 888
1364 1366
1364 1014
1364 1367
1364 1368
1364 1015
1364 1010
1364 1310
1365 1363
1365 1364
1365 1013
1365 1366
1365 1367
1365 1368
1365 1310
1365 1014
1365 1010
1365 1015
1365 1369
1365 1370
1365 849
1365 1371
1365 1372
1365 1373
1365 1374
1365 1375
1366 1365
1366 1367
1366 1368
1366 1310
1366 1363
1366 1364
1366 1013
1366 1014
1366 1015
1366 1010
1366 1369
1366 1370
1366 1371
1366 1372
1366 1373
1366 1374
1366 1375
1366 849
1366 65
1366 1566
1366 516
1366 1567
1366 240
1366 617
1367 1365
1367 1366
1367 1368
1367 1310
1367 1369
1367 1371
1367 1372
1367 1373
1367 1370
1367 1374
1367 1375
1367 849
1367 1013
1367 1014
1367 1015
1367 1010
1367 1363
1367 1364
1368 1365
1368 1366
1368 1367
1368 1310
1368 1370
1368 1374
1368 1375
1368 1371
1368 1372
1368 1373
1368 1369
1368 849
1368 1013
1368 1014
1368 1015
1368 1010
1368 1363
1368 1364
1369 1367
1369 1371
1369 1373
1369 1372
1369 1365
1369 1366
1369 1368
1369 1310
1369 1370
1369 1015
1369 1374
1369 1375
1369 849
1370 1368
1370 1375
1370 1374
1370 1365
1370 1366
1370 1367
1370 1310
1370 1372
1370 1371
1370 1373
1370 849
1371 1367
1371 1369
1371 1372
1371 1373
1371 1368
1371 1310
1371 1370
1371 1015
1371 1375
1371 1374
1371 849
1371 1366
1372 1367
1372 1369
1372 1371
1372 1373
1372 1368
1372 1310
1372 1370
1372 1015
1372 1375
1372 1374
1372 849
1372 1365
1372 1366
1373 1367
1373 1369
1373 1372
1373 1371
1373 1368
1373 1310
1373 1370
1373 1015
1373 1375
1373 1374
1373 849
1373 1365
1373 1366
1374 1370
1374 1368
1374 1375
1374 1367
1374 1310
1374 1369
1374 1015
1374 1371
1374 1373
1374 1372
1374 849
1374 1366
1375 1370
1375 1368
1375 1374
1375 1367
1375 1310
1375 1369
1375 1015
1375 1371
1375 1373
1375 1372
1375 849
1375 1366
1376 1377
1376 1378
1376 627
1376 509
1376 46
1376 26
1376 23
1377 627
1377 1941
1377 1378
1377 1376
1377 1942
1377 1943
1377 614
1377 46
1377 192
1377 329
1377 509
1378 1377
1378 1941
1378 627
1378 1376
1378 1942
1378 1943
1379 694
1380 1381
1380 2
1380 371
1381 23
1381 1380
1381 2389
1382 25
1382 23
1383 1116
1383 1114
1383 10
1384 491
1384 512
1384 28
1384 511
1384 560
1384 112
1384 110
1384 274
1384 25
1385 1386
1386 1385
1386 32
1386 922
1386 550
1386 185
1387 100
1387 151
1387 1388
1387 1389
1387 158
1387 104
1388 1387
1388 1389
1388 568
1388 190
1389 1388
1389 1387
1390 299
1390 1391
1390 1392
1390 176
1390 297
1390 23
1390 28
1391 299
1391 1390
1391 1392
1391 176
1391 297
1391 23
1392 299
1392 1391
1392 1390
1392 176
1392 297
1392 23
1393 1394
1393 100
1394 170
1395 138
1395 58
1396 165
1396 23
1397 1285
1397 276
1397 3
1397 2401
1397 243
1397 507
1397 347
1397 352
1397 203
1397 165
1397 1544
1397 1256
1398 165
1399 23
1400 750
1400 23
1401 299
1402 464
1402 729
1402 521
1402 516
1402 55
1403 1087
1404 885
1404 891
1404 892
1404 1405
1404 897
1404 895
1404 884
1405 892
1405 897
1405 885
1405 891
1405 1404
1405 895
1405 896
1406 23
1406 1091
1406 286
1406 409
1406 1407
1407 23
1407 1749
1407 1523
1407 2047
1407 384
1407 2088
1407 794
1407 740
1407 440
1407 793
1407 248
1407 260
1407 259
1407 791
1407 792
1407 795
1407 1748
1407 2089
1407 1993
1407 1406
1408 261
1408 779
1409 178
1409 921
1410 879
1410 878
1410 877
1411 1350
1412 1174
1412 362
1413 1414
1414 1413
1414 31
1414 153
1415 1416
1415 170
1415 100
1416 1415
1416 170
1416 100
1416 102
1416 171
1417 1418
1417 1419
1417 1420
1417 1421
1418 1417
1418 1419
1418 1420
1418 1421
1418 100
1419 1417
1419 1418
1419 1420
1419 1421
1419 100
1420 1421
1420 1419
1420 1417
1420 568
1420 191
1420 100
1420 1523
1420 1638
1421 1420
1421 1419
1421 1417
1421 100
1422 1423
1422 1424
1422 1425
1422 1426
1422 72
1422 39
1423 437
1423 454
1423 574
1423 1427
1423 1428
1423 1429
1424 1425
1424 1422
1424 1426
1425 1424
1425 1422
1425 1426
1425 72
1425 23
1425 36
1425 1055
1425 25
1425 37
1425 2
1425 31
1426 1425
1426 1424
1426 1422
1427 1423
1427 454
1427 456
1427 574
1427 437
1427 138
1428 821
1428 753
1428 23
1428 112
1428 1423
1428 287
1429 724
1429 2197
1429 2198
1429 83
1429 189
1429 1423
1430 1431
1430 1432
1431 2254
1431 1430
1432 1430
1432 1463
1433 1434
1433 1435
1433 1436
1434 46
1434 1433
1434 1435
1434 1436
1435 2319
1435 1433
1435 1434
1435 1436
1436 165
1436 1433
1436 1434
1436 1435
1437 1438
1437 1439
1437 1440
1437 367
1438 1437
1438 1439
1438 1440
1438 367
1438 1445
1439 1437
1439 1438
1439 1440
1439 367
1440 367
1440 1441
1440 1437
1440 1438
1440 1439
1440 1443
1440 1445
1440 1710
1440 36
1441 367
1441 1438
1441 1710
1441 2528
1441 1444
1441 28
1441 1445
1441 368
1441 46
1441 1440
1441 36
1442 367
1442 46
1442 228
1442 2
1442 28
1442 23
1442 1192
1442 1047
1442 368
1443 1440
1443 367
1444 28
1444 1441
1444 367
1444 1221
1444 46
1445 58
1445 1441
1445 367
1445 368
1445 46
1445 1451
1445 36
1445 35
1445 1440
1446 1450
1446 625
1446 828
1446 367
1446 46
1446 178
1446 1821
1446 368
1446 58
1446 395
1447 2279
1447 583
1447 829
1447 46
1447 228
1447 368
1447 367
1447 58
1447 192
1447 1448
1447 2278
1447 23
1448 2276
1448 2278
1448 1447
1448 2279
1448 46
1448 23
1448 368
1448 369
1449 2536
1449 625
1449 1821
1449 1946
1449 1945
1449 1450
1449 1947
1449 368
1449 367
1449 46
1449 178
1449 1192
1449 509
1449 1221
1449 828
1450 1946
1450 2177
1450 1945
1450 1947
1450 2178
1450 1821
1450 625
1450 1449
1450 46
1450 1192
1450 1047
1450 178
1450 194
1450 58
1450 1964
1450 828
1450 35
1450 1446
1451 36
1451 871
1451 2213
1451 58
1451 367
1451 368
1451 46
1451 1445
1451 35
1451 1441
1452 28
1452 56
1452 57
1452 491
1452 677
1452 1826
1453 37
1453 1454
1453 1205
1453 1207
1453 1455
1454 205
1454 37
1454 1453
1455 37
1455 1176
1456 29
1456 32
1457 205
1457 2046
1457 598
1457 1458
1458 35
1458 598
1458 1455
1458 1176
1459 1460
1459 1461
1459 39
1460 1459
1460 1461
1460 354
1461 1460
1461 1459
1461 1805
1462 1463
1462 1464
1463 1432
1463 1462
1464 1462
1464 1676
1465 23
1466 650
1466 333
1467 23
1467 24
1467 205
1468 1469
1468 43
1468 1470
1469 1468
1469 1470
1469 43
1469 1471
1469 390
1469 355
1470 1469
1470 43
1470 1471
1470 390
1470 1468
1470 355
1470 28
1471 1470
1471 1469
1471 43
1471 390
1472 28
1472 990
1472 388
1472 299
1472 43
1472 23
1472 25
1472 24
1472 390
1472 366
1472 928
1473 1763
1473 42
1473 1762
1473 24
1473 23
1473 43
1473 770
1473 205
1473 25
1473 2
1473 28
1474 28
1474 23
1474 36
1474 1475
1474 25
1474 24
1474 990
1475 28
1475 36
1475 1474
1475 23
1475 24
1475 25
1475 990
1476 36
1476 1477
1476 72
1476 23
1476 25
1476 1055
1477 36
1477 1476
1478 319
1478 23
1478 398
1478 431
1478 118
1478 25
1478 28
1478 420
1479 103
1479 100
1479 1480
1479 1481
1479 1482
1479 1045
1480 1479
1480 1481
1480 1045
1480 1482
1481 1482
1481 1479
1482 1481
1483 60
1483 3
1483 1484
1484 60
1484 3
1484 1483
1485 1486
1485 412
1485 413
1485 2
1485 31
1485 23
1485 24
1485 58
1485 28
1486 1485
1487 1488
1487 23
1487 228
1488 1487
1488 23
1488 228
1489 1490
1489 1491
1489 1152
1489 1917
1489 1918
1490 1489
1490 1491
1490 1152
1490 1682
1491 1489
1491 1490
1491 1152
1491 1972
1492 386
1492 1493
1492 1494
1492 1495
1492 23
1493 2390
1493 386
1493 23
1494 386
1494 1495
1494 1492
1495 1884
1495 386
1495 1574
1495 1492
1496 1497
1496 23
1496 178
1496 354
1497 1496
1498 1079
1498 699
1498 330
1498 23
1498 153
1498 73
1499 23
1499 24
1500 1256
1500 1501
1501 1285
1501 352
1501 32
1501 924
1501 1500
1502 1503
1502 1504
1502 151
1502 176
1502 249
1502 2
1502 10
1502 23
1502 334
1502 1505
1502 9
1502 244
1502 626
1502 58
1502 28
1502 373
1502 250
1503 1502
1503 28
1503 23
1503 276
1503 253
1503 151
1503 924
1504 1503
1504 1502
1504 46
1505 1502
1505 334
1505 2
1505 151
1505 10
1505 23
1505 28
1505 1522
1506 1507
1506 1508
1506 1509
1506 1510
1506 1511
1506 127
1506 1512
1506 1513
1506 1514
1507 1514
1507 1508
1507 1506
1507 1509
1507 1510
1507 1511
1507 127
1507 1512
1507 1513
1508 1514
1508 1512
1508 1507
1508 1506
1508 1509
1508 1510
1508 1511
1508 127
1508 1513
1509 1507
1509 1508
1509 1506
1509 1510
1509 1511
1509 127
1509 1512
1509 1513
1509 1514
1510 1507
1510 1508
1510 1506
1510 1509
1510 1511
1510 127
1510 1512
1510 1513
1510 1514
1511 1507
1511 1508
1511 1506
1511 1509
1511 1510
1511 127
1511 1512
1511 1513
1511 1514
1512 1514
1512 1513
1512 1508
1512 1507
1512 1506
1512 1509
1512 1510
1512 1511
1512 127
1513 1512
1513 1508
1513 1507
1513 1509
1513 1506
1513 1510
1513 1511
1513 127
1513 1514
1514 1508
1514 1507
1514 1512
1514 1513
1514 1506
1514 1509
1514 1510
1514 1511
1514 127
1515 1516
1516 663
1516 662
1516 1647
1516 1648
1516 1515
1516 81
1516 23
1516 25
1516 24
1516 36
1516 1649
1516 244
1517 1518
1517 27
1518 1517
1519 1520
1519 1521
1519 235
1520 1521
1520 1519
1520 235
1521 1520
1521 1519
1521 235
1522 25
1522 1965
1522 579
1522 1085
1523 1749
1523 794
1523 740
1523 440
1523 260
1523 259
1523 248
1523 1407
1523 665
1523 191
1523 418
1523 100
1523 1583
1523 2199
1523 817
1524 255
1524 9
1524 28
1524 23
1524 250
1525 178
1525 2
1526 297
1526 23
1526 299
1527 1528
1527 244
1527 1529
1528 1527
1528 244
1528 1529
1529 1527
1529 1528
1529 244
1530 2029
1530 25
1530 244
1531 244
1531 23
1531 25
1531 24
1531 303
1531 453
1531 28
1532 520
1532 2284
1532 28
1532 25
1532 244
1532 519
1532 23
1532 31
1532 821
1532 1826
1532 677
1532 354
1532 112
1532 24
1532 36
1532 37
1532 73
1532 10
1532 2
1532 120
1532 1275
1532 270
1532 94
1532 121
1532 95
1533 2044
1533 28
1533 928
1533 214
1533 178
1533 23
1533 110
1533 73
1533 24
1533 25
1533 244
1533 1527
1533 1528
1533 803
1534 63
1534 1535
1534 1536
1534 1537
1534 1538
1535 1536
1535 1537
1535 1534
1535 63
1535 61
1536 1537
1536 63
1536 1535
1536 61
1536 1534
1537 1536
1537 63
1537 1535
1538 326
1538 63
1538 1534
1538 27
1539 1540
1539 2
1539 112
1540 1539
1540 30
1541 1542
1541 363
1541 1543
1542 1541
1542 363
1542 1543
1543 363
1543 1541
1543 1542
1543 24
1543 25
1544 21
1544 2
1544 363
1544 1397
1545 1259
1546 28
1546 23
1546 924
1546 1547
1547 319
1547 118
1547 398
1547 25
1548 10
1548 1549
1548 69
1548 1550
1549 10
1549 1548
1549 69
1549 1618
1550 1516
1550 23
1550 937
1550 69
1550 10
1550 39
1550 24
1550 25
1550 9
1551 644
1551 100
1551 124
1551 1552
1552 644
1552 100
1552 124
1552 1551
1552 390
1553 277
1553 28
1554 83
1554 189
1555 1556
1555 1557
1556 1555
1556 1557
1557 2154
1557 2155
1557 1555
1557 1556
1558 383
1558 1559
1558 1560
1558 58
1559 383
1559 1560
1559 1558
1559 58
1560 383
1560 1559
1560 1558
1560 1562
1561 58
1561 2078
1561 2079
1561 1665
1561 1666
1561 1667
1561 2076
1561 2077
1561 1664
1561 1668
1561 2234
1561 2081
1561 2409
1562 1559
1562 383
1562 1560
1562 1558
1563 24
1563 23
1563 37
1563 112
1563 414
1564 23
1564 24
1564 25
1564 192
1564 617
1564 112
1565 24
1565 23
1565 366
1566 1366
1566 65
1566 516
1566 1567
1566 240
1566 617
1566 28
1566 53
1566 40
1566 2
1566 54
1566 31
1566 514
1566 72
1567 617
1567 1366
1567 65
1567 1566
1567 516
1567 240
1567 28
1568 23
1568 800
1568 253
1568 311
1569 28
1569 24
1569 333
1569 937
1569 23
1569 111
1569 55
1569 112
1569 36
1569 25
1570 386
1570 251
1570 374
1570 23
1570 421
1570 319
1570 422
1571 356
1571 251
1571 374
1571 386
1572 153
1572 1573
1572 374
1572 251
1572 270
1572 386
1572 23
1573 153
1573 1572
1573 374
1573 251
1573 270
1573 386
1573 23
1573 422
1573 319
1573 421
1574 23
1574 386
1574 153
1575 783
1575 1576
1575 1577
1576 1580
1576 1739
1576 1575
1577 1751
1577 1717
1577 418
1577 151
1577 104
1577 1640
1577 101
1577 1649
1577 1575
1577 707
1578 1579
1578 1580
1579 1830
1579 1647
1579 1578
1580 1576
1580 1578
1580 1360
1581 1582
1581 97
1581 100
1581 418
1581 1583
1581 1584
1582 1581
1582 97
1583 2286
1583 208
1583 100
1583 1584
1583 151
1583 101
1583 104
1583 207
1583 206
1583 1636
1583 1638
1583 418
1583 49
1583 392
1584 1583
1585 112
1585 1586
1585 398
1585 154
1585 1587
1585 152
1585 156
1586 1585
1587 413
1587 2226
1587 491
1587 560
1587 2384
1588 1589
1588 23
1588 257
1588 246
1589 2393
1589 205
1589 246
1589 1588
1589 23
1589 2166
1590 374
1590 1591
1590 1592
1590 251
1590 386
1591 1590
1591 1592
1591 374
1591 251
1592 1590
1592 1591
1592 23
1592 35
1592 2
1592 251
1592 386
1593 1594
1593 1595
1593 60
1594 1593
1594 1595
1595 1593
1595 1594
1596 1597
1597 2235
1597 2236
1597 2237
1597 1596
1598 1599
1598 10
1599 1598
1600 127
1600 1601
1600 1602
1600 1603
1600 1604
1600 1605
1601 1600
1601 127
1602 1603
1602 1600
1602 1605
1603 1602
1603 1600
1603 1605
1604 1600
1604 127
1604 1602
1604 1603
1605 1952
1605 1600
1605 1602
1605 1603
1606 1607
1607 1606
1607 24
1607 178
1607 23
1607 2
1608 23
1608 28
1608 1269
1608 1130
1609 1610
1610 1609
1610 100
1611 1186
1611 342
1611 32
1612 7
1612 1613
1612 46
1613 7
1613 1612
1613 2128
1613 8
1613 192
1613 46
1614 1301
1614 402
1614 403
1614 244
1615 1616
1615 1596
1615 1617
1615 1618
1616 1615
1616 1618
1616 1596
1616 1617
1617 1618
1618 1549
1618 1617
1618 10
1619 904
1619 1620
1619 23
1620 904
1621 1309
1621 554
1621 268
1621 558
1621 406
1621 100
1622 203
1622 1623
1622 2
1623 914
1623 1622
1624 1625
1624 1626
1624 1627
1625 1626
1625 1624
1625 1627
1626 1625
1626 1624
1626 1627
1627 1625
1627 1626
1627 1624
1627 23
1628 1629
1628 31
1628 389
1628 388
1629 1628
1629 31
1629 153
1629 23
1629 10
1629 389
1629 388
1629 1075
1629 357
1629 359
1629 375
1630 1631
1630 23
1631 1630
1631 100
1632 72
1632 23
1632 1633
1632 25
1633 23
1633 1632
1633 73
1634 1635
1635 1634
1636 1637
1636 1638
1636 1583
1637 1636
1637 1638
1637 100
1638 1636
1638 1637
1638 1583
1638 100
1639 1640
1639 104
1639 101
1639 571
1639 100
1640 104
1640 1752
1640 1639
1640 100
1640 101
1641 1912
1641 101
1642 1154
1642 1643
1642 176
1642 385
1642 249
1643 1642
1643 309
1643 2306
1643 2307
1643 746
1644 1645
1644 2
1645 1644
1645 1783
1645 1784
1645 2
1645 1955
1645 372
1646 1831
1646 662
1646 663
1646 660
1646 1647
1647 1649
1647 663
1647 662
1647 1516
1647 1829
1647 78
1647 1579
1647 1830
1647 1646
1647 1831
1648 1516
1648 1649
1649 1647
1649 663
1649 662
1649 1516
1649 1739
1649 1577
1650 127
1650 1651
1650 1652
1650 1653
1650 1654
1651 1650
1651 1654
1651 1653
1651 127
1652 1650
1652 1653
1653 1650
1653 1652
1653 1654
1653 1651
1654 1650
1654 1652
1654 1653
1654 1651
1655 1656
1656 1655
1656 334
1656 23
1656 28
1656 25
1656 804
1656 747
1657 10
1657 729
1657 513
1657 2034
1657 695
1657 151
1657 2035
1657 379
1657 515
1657 360
1657 55
1657 111
1657 23
1658 882
1659 1660
1659 1661
1660 1659
1660 1661
1660 802
1660 176
1660 28
1660 249
1661 1659
1661 1660
1662 1663
1662 395
1662 25
1662 24
1662 424
1662 495
1662 23
1662 28
1662 58
1662 42
1662 13
1662 350
1662 38
1663 1662
1663 25
1663 28
1664 58
1664 1561
1664 1665
1664 1666
1664 1667
1664 1668
1664 618
1664 383
1665 2076
1665 2077
1665 1561
1665 58
1665 1666
1665 1667
1665 2078
1665 2079
1665 1664
1665 1668
1665 2080
1665 2081
1666 1561
1666 58
1666 1667
1666 1668
1666 1664
1666 2078
1666 2079
1666 2076
1666 2077
1666 2234
1666 2081
1667 1561
1667 1665
1667 58
1667 1666
1667 1668
1667 1664
1667 2078
1667 2079
1667 2076
1667 2077
1667 2234
1667 2081
1668 1666
1668 1667
1668 58
1668 1664
1668 1561
1668 1665
1668 2234
1668 2081
1669 1670
1669 990
1669 995
1669 230
1669 32
1669 38
1670 1669
1670 749
1670 995
1670 32
1670 230
1671 1672
1671 1673
1671 1674
1671 1675
1671 1676
1671 1677
1671 1678
1672 1671
1672 1673
1672 1674
1672 124
1672 2064
1673 1671
1673 1672
1673 1674
1673 1868
1674 1672
1674 1671
1674 1673
1674 1935
1675 1991
1675 1677
1675 1676
1675 1678
1676 2051
1676 2052
1676 2053
1676 1294
1676 814
1676 817
1676 833
1676 317
1676 1464
1676 2054
1677 1782
1677 1675
1677 1676
1677 1678
1678 1675
1678 1676
1678 1677
1679 1314
1680 1314
1680 46
1680 367
1680 58
1680 178
1681 1186
1681 32
1682 1490
1683 922
1684 1685
1684 1302
1685 1686
1685 1684
1685 1302
1685 1689
1685 1690
1686 1685
1686 1687
1686 1688
1687 1686
1687 1688
1688 1686
1689 1302
1689 23
1690 1302
1690 1685
1690 1686
1690 1684
1690 2466
1691 1692
1692 1691
1692 1693
1692 1694
1693 2145
1693 1692
1694 1692
1694 154
1695 3
1695 60
1695 63
1695 61
1695 1869
1696 69
1696 1697
1696 23
1696 30
1697 69
1697 1696
1697 10
1697 9
1698 23
1698 32
1698 176
1698 253
1698 38
1698 258
1698 138
1699 28
1699 1043
1700 1777
1700 84
1700 1885
1700 83
1700 189
1700 2313
1700 176
1701 597
1702 1714
1702 2448
1702 32
1702 185
1702 597
1702 178
1702 619
1702 398
1702 868
1703 597
1703 1704
1703 1705
1703 619
1703 398
1703 32
1704 597
1704 1703
1704 32
1704 619
1704 398
1705 1702
1705 597
1705 395
1705 32
1705 2476
1706 1187
1706 344
1706 32
1707 1065
1707 1708
1707 32
1707 614
1707 185
1707 398
1707 350
1708 614
1708 1909
1708 1707
1708 56
1708 57
1708 390
1708 23
1708 244
1708 10
1709 46
1709 228
1710 1441
1710 367
1710 36
1711 2163
1711 1713
1711 1200
1712 1713
1712 178
1712 46
1712 830
1712 106
1712 228
1712 192
1712 2163
1713 46
1713 1712
1713 178
1713 2163
1714 1702
1714 32
1714 185
1714 1070
1714 398
1714 597
1714 619
1714 1715
1715 1714
1715 619
1715 1702
1715 32
1716 25
1716 23
1716 24
1716 319
1716 118
1716 1717
1717 1577
1717 1716
1718 1719
1719 1718
1720 1721
1720 1722
1720 1377
1720 509
1720 46
1720 627
1721 1722
1721 1720
1722 1721
1722 1720
1723 1724
1724 1723
1724 2
1725 1327
1725 1726
1725 420
1725 1727
1725 28
1725 119
1725 1728
1726 1327
1726 1725
1726 1727
1726 420
1727 23
1728 28
1728 1725
1728 936
1729 326
1729 1730
1729 63
1729 1731
1729 1794
1730 326
1730 1729
1731 1789
1731 1729
1731 326
1731 1794
1731 63
1731 3
1731 27
1732 1978
1732 27
1732 320
1732 1825
1732 327
1732 3
1732 326
1732 63
1732 65
1733 120
1733 270
1733 1275
1733 706
1734 1797
1735 1736
1735 1737
1735 142
1735 138
1735 136
1735 140
1735 1738
1736 1735
1736 1737
1737 1736
1737 1735
1738 24
1738 1735
1739 1740
1739 694
1739 287
1739 1741
1739 1649
1739 1742
1739 1576
1740 1739
1741 2094
1741 1779
1741 2031
1742 2031
1742 1739
1743 106
1743 32
1743 38
1744 1045
1744 855
1744 32
1745 46
1745 75
1745 2045
1746 1747
1746 856
1746 273
1746 274
1747 1746
1747 856
1747 273
1747 274
1747 2031
1748 2089
1748 1993
1748 384
1748 794
1748 1749
1748 1523
1748 1407
1748 23
1748 24
1748 248
1748 176
1749 1523
1749 794
1749 740
1749 440
1749 260
1749 259
1749 248
1749 1407
1749 100
1750 32
1750 185
1751 1577
1752 332
1752 1976
1752 414
1752 1977
1752 276
1752 1172
1752 107
1752 25
1752 28
1752 350
1753 1754
1754 2091
1754 103
1754 100
1754 1753
1755 764
1755 100
1756 73
1756 72
1756 23
1757 598
1758 333
1759 1760
1759 2294
1759 2295
1759 333
1760 1759
1760 2294
1760 2295
1760 23
1760 333
1761 819
1761 361
1761 2380
1762 1763
1762 1473
1762 42
1762 1764
1763 1473
1763 42
1763 1762
1764 1786
1764 192
1764 106
1764 185
1764 32
1764 329
1764 228
1764 2
1764 42
1764 1763
1764 1473
1765 679
1766 46
1766 1767
1767 436
1767 46
1767 1766
1768 106
1769 1045
1770 1771
1770 598
1771 1770
1771 205
1772 900
1772 178
1772 23
1772 25
1772 244
1772 28
1773 1774
1773 614
1773 714
1773 316
1774 614
1774 361
1774 1277
1775 590
1775 1776
1775 10
1776 1775
1776 590
1776 10
1777 547
1777 1030
1777 138
1777 139
1777 23
1777 83
1777 189
1777 285
1778 1779
1778 718
1778 154
1778 24
1778 1780
1778 23
1778 25
1778 137
1779 308
1779 1741
1780 145
1780 370
1781 706
1781 120
1782 1677
1782 46
1783 1644
1783 1645
1783 1784
1783 1785
1784 1644
1784 1645
1784 1783
1784 320
1785 2147
1785 2146
1785 1783
1786 2201
1786 2202
1786 923
1786 194
1786 32
1786 30
1786 58
1786 2
1786 185
1787 118
1787 369
1788 600
1788 32
1788 243
1788 350
1788 923
1788 106
1789 1731
1790 277
1791 277
1792 2
1792 23
1793 277
1793 28
1793 69
1793 23
1794 1729
1794 1731
1794 326
1794 63
1795 1796
1795 23
1795 1236
1796 1795
1796 23
1796 1236
1797 1734
1798 178
1798 1799
1798 382
1798 1800
1798 35
1799 1798
1799 178
1799 348
1800 1798
1800 382
1800 178
1800 25
1800 28
1801 356
1801 251
1802 2280
1802 49
1802 32
1802 2348
1802 2303
1802 31
1802 185
1803 796
1803 797
1803 798
1804 783
1804 1131
1804 350
1805 2259
1806 145
1806 23
1806 25
1807 1808
1808 1807
1809 1810
1809 1142
1810 1809
1810 1142
1811 1142
1812 100
1813 694
1813 1196
1813 1819
1813 807
1813 1814
1813 1817
1813 1818
1814 807
1814 1815
1814 694
1814 1817
1814 1818
1814 1813
1814 1819
1815 1814
1815 694
1815 1817
1815 1818
1816 694
1816 1817
1816 1818
1816 1814
1816 1815
1817 694
1817 1816
1817 1818
1817 1814
1817 1815
1818 694
1818 1816
1818 1817
1818 1814
1818 1815
1819 1813
1819 807
1819 1814
1819 694
1819 1817
1819 1818
1819 1268
1820 340
1820 694
1820 32
1820 178
1820 253
1820 29
1820 1349
1820 347
1821 2531
1821 2532
1821 625
1821 1449
1821 1946
1821 1450
1821 1947
1821 368
1821 367
1821 46
1821 178
1821 1047
1821 58
1821 1964
1821 35
1821 509
1821 828
1821 1192
1821 1446
1821 2165
1822 672
1822 68
1822 27
1823 2533
1823 2534
1823 205
1823 27
1823 2
1824 27
1824 20
1824 62
1825 327
1825 322
1825 27
1825 63
1825 2
1825 20
1826 23
1827 1640
1827 1828
1827 665
1828 1827
1828 665
1829 2266
1829 78
1829 949
1829 1830
1830 1579
1830 1647
1830 1829
1830 782
1831 1646
1831 663
1831 662
1831 1949
1831 660
1831 1516
1832 57
1833 1243
1833 1066
1834 807
1834 669
1835 1836
1836 1835
1836 153
1836 31
1837 1838
1837 28
1837 366
1837 23
1838 1837
1838 28
1838 366
1838 23
1838 153
1838 355
1839 1840
1840 924
1840 1839
1840 2327
1841 614
1841 1266
1842 614
1842 2189
1843 176
1843 23
1843 24
1843 25
1844 933
1845 1082
1846 1847
1846 63
1846 3
1847 1846
1847 3
1848 1849
1848 1850
1848 354
1848 184
1849 1848
1849 354
1849 1850
1849 184
1850 1848
1850 1849
1850 354
1850 184
1851 354
1851 23
1852 1227
1852 1853
1853 1852
1854 406
1854 1855
1854 368
1854 24
1855 23
1855 1761
1855 1854
1855 307
1856 699
1856 100
1857 1355
1857 1858
1857 3
1858 1355
1858 1857
1858 23
1858 37
1859 1860
1859 1861
1859 1862
1859 1863
1859 1864
1859 1865
1859 46
1859 1866
1859 367
1859 47
1860 1861
1860 1859
1860 1862
1860 1866
1860 1863
1860 1864
1860 46
1860 2302
1861 1860
1861 2469
1861 1859
1861 1862
1861 1863
1861 1864
1862 1859
1862 1863
1862 1860
1862 1861
1863 1862
1863 1859
1863 1860
1863 1861
1863 46
1864 2302
1864 1860
1864 1859
1864 1862
1864 46
1864 1863
1865 1859
1866 46
1866 1860
1866 178
1867 1868
1867 251
1868 1867
1868 598
1869 63
1869 1695
1870 46
1870 1871
1871 46
1871 1870
1872 1067
1872 253
1872 990
1872 1172
1872 2105
1872 2106
1872 32
1872 550
1872 230
1872 132
1873 58
1873 270
1873 153
1873 23
1873 25
1873 1172
1874 60
1874 61
1874 410
1874 676
1874 63
1874 1536
1875 376
1875 178
1875 348
1875 377
1875 2
1876 62
1876 1877
1877 1876
1877 62
1877 23
1877 1990
1878 1280
1878 1879
1878 1880
1878 1881
1879 1878
1879 1280
1880 1878
1880 1881
1881 1878
1881 1280
1881 1880
1882 1883
1883 1989
1883 1882
1883 1971
1883 23
1884 1495
1885 83
1885 1028
1885 951
1885 2194
1886 1887
1887 386
1887 1495
1887 1886
1888 1163
1888 181
1888 1162
1888 182
1888 1090
1888 1091
1888 1164
1888 1165
1888 1889
1889 1888
1889 181
1889 1090
1889 1091
1889 1164
1889 1165
1890 182
1890 1164
1890 181
1890 1090
1890 1091
1890 1165
1891 127
1891 1892
1892 1891
1892 127
1893 46
1893 829
1893 830
1893 1045
1894 561
1894 560
1894 24
1895 1896
1895 1897
1895 1898
1895 100
1896 1897
1896 1898
1896 1895
1896 100
1897 1898
1897 1896
1897 1895
1897 100
1898 1897
1898 1896
1898 1895
1898 100
1899 1900
1899 156
1899 1901
1899 56
1899 57
1899 23
1899 24
1899 25
1900 1899
1900 156
1900 1901
1900 23
1900 24
1900 25
1901 1899
1901 1900
1901 156
1901 72
1902 1903
1903 1902
1903 2143
1904 1905
1904 178
1904 32
1904 237
1905 1904
1905 178
1905 32
1905 237
1906 178
1906 2
1907 112
1907 560
1908 112
1908 491
1908 560
1908 436
1908 1051
1909 663
1909 1708
1909 2
1909 1988
1910 1911
1911 2
1911 990
1911 178
1911 23
1911 106
1911 118
1911 1910
1912 1641
1912 1913
1912 1914
1912 23
1912 25
1912 55
1912 24
1912 990
1912 28
1912 1915
1913 518
1913 1912
1913 1914
1913 23
1913 28
1914 1913
1914 23
1914 28
1915 244
1915 1912
1915 25
1915 55
1915 24
1915 990
1915 177
1915 28
1915 1914
1916 990
1916 253
1917 1918
1917 1489
1918 1917
1918 1489
1919 1920
1919 1921
1919 228
1919 58
1920 1919
1920 1921
1920 228
1920 58
1921 1919
1921 1920
1921 228
1921 58
1922 1923
1922 1924
1922 237
1922 32
1922 2
1922 31
1922 175
1922 352
1923 1924
1923 1922
1923 237
1923 32
1923 506
1923 2
1924 1923
1924 1922
1924 237
1924 32
1924 506
1924 2
1925 23
1926 58
1926 1927
1926 1928
1927 106
1927 1926
1927 1928
1928 31
1928 1926
1928 1927
1929 58
1929 1927
1929 1928
1930 58
1930 1927
1930 1928
1931 58
1931 1927
1931 1928
1932 614
1933 2
1933 1934
1933 27
1934 2
1934 1933
1934 27
1935 2050
1935 1674
1936 1937
1936 124
1937 1936
1937 672
1937 3
1938 598
1939 265
1939 598
1939 1940
1939 23
1939 13
1939 406
1939 2269
1939 2270
1940 1939
1940 598
1940 265
1941 1377
1941 1378
1942 627
1942 1377
1942 1378
1942 1943
1943 627
1943 1377
1943 1378
1943 1942
1944 1030
1945 1946
1945 1450
1945 1947
1945 1449
1945 1821
1945 625
1945 35
1945 1192
1945 46
1946 1945
1946 1450
1946 1947
1946 1449
1946 1821
1946 625
1946 35
1946 1192
1946 46
1947 1946
1947 1945
1947 1450
1947 1821
1947 625
1947 1449
1947 192
1948 1949
1948 935
1949 935
1949 81
1949 448
1949 449
1949 1948
1950 107
1950 192
1950 1086
1951 13
1952 127
1953 1100
1953 477
1953 480
1953 1954
1954 25
1954 1965
1954 1522
1954 1953
1954 246
1955 1645
1956 374
1956 251
1956 23
1956 266
1956 386
1956 356
1957 361
1957 24
1957 69
1957 23
1957 2238
1957 25
1958 23
1959 2285
1959 58
1959 2
1959 32
1959 340
1959 228
1959 23
1959 1072
1959 244
1959 178
1959 10
1959 28
1959 395
1959 1306
1960 1987
1960 197
1960 198
1961 46
1961 1962
1962 46
1962 1961
1963 2
1963 32
1963 1964
1964 2
1964 1946
1964 1945
1964 1450
1964 1947
1964 46
1964 1821
1964 58
1964 1963
1965 25
1965 1954
1965 1522
1965 348
1966 1967
1967 37
1967 1966
1968 258
1968 1969
1968 672
1968 1970
1968 3
1968 320
1969 1968
1969 258
1970 3
1970 320
1970 1968
1970 250
1971 23
1972 1491
1973 373
1973 354
1973 1974
1973 1975
1974 1973
1974 23
1975 1973
1976 414
1976 1977
1976 332
1976 1752
1976 2
1977 1976
1977 414
1977 332
1977 1752
1977 23
1978 1732
1978 1979
1979 1978
1980 1382
1981 1982
1981 1983
1981 186
1982 1984
1982 371
1982 27
1982 1985
1982 1986
1982 3
1982 2
1982 1054
1983 1981
1983 186
1984 1982
1985 371
1985 27
1985 3
1985 327
1986 371
1986 1982
1986 1985
1986 27
1986 2257
1987 1960
1987 197
1987 198
1988 663
1988 662
1988 864
1988 1909
1989 1883
1989 662
1990 1877
1990 23
1991 1675
1992 23
1992 178
1992 36
1992 395
1992 39
1992 354
1992 495
1992 25
1992 482
1992 2440
1992 1498
1992 2449
1992 1977
1992 298
1993 301
1993 1748
1993 2089
1993 248
1993 25
1993 35
1994 747
1994 804
1994 25
1994 24
1994 431
1994 432
1995 202
1996 724
1996 72
1996 360
1996 719
1997 2458
1997 1998
1997 1999
1998 1997
1998 1999
1999 1997
1999 1998
2000 30
2000 1220
2000 2001
2001 1220
2001 30
2001 2000
2001 339
2002 23
2002 10
2002 28
2002 39
2003 2004
2003 228
2003 32
2004 2003
2004 552
2004 32
2004 228
2005 8
2005 583
2006 2007
2006 2017
2007 46
2007 2006
2007 2017
2008 2407
2008 26
2008 23
2008 28
2008 46
2008 367
2008 47
2008 2014
2009 1045
2009 58
2010 614
2011 1045
2011 2013
2012 100
2012 614
2013 472
2013 1045
2013 2011
2014 46
2014 2008
2014 1045
2014 367
2014 47
2015 353
2015 32
2015 1045
2016 106
2016 1190
2016 46
2016 178
2017 2007
2017 2006
2018 1082
2019 1082
2020 1082
2021 23
2021 355
2022 2023
2022 23
2023 2056
2023 2022
2024 2148
2024 2150
2024 2151
2025 1121
2025 1122
2026 21
2027 2028
2027 72
2027 598
2028 2027
2028 72
2028 598
2029 72
2029 1530
2030 319
2030 118
2030 369
2030 72
2031 273
2031 856
2031 274
2031 1746
2031 1747
2031 1741
2031 1742
2032 3
2032 1695
2033 378
2033 26
2034 10
2034 729
2034 695
2034 1657
2034 614
2035 1657
2035 379
2035 24
2035 25
2035 729
2036 2037
2036 2038
2036 228
2036 46
2036 1047
2036 1046
2037 2036
2037 2038
2037 46
2037 828
2037 107
2037 925
2038 2036
2038 2037
2039 2040
2039 23
2040 2039
2040 23
2041 1035
2041 2124
2042 83
2042 189
2043 124
2043 2044
2043 100
2044 1533
2044 124
2044 2043
2044 100
2045 46
2045 75
2045 2221
2045 1745
2045 829
2045 830
2046 205
2046 1457
2047 384
2047 794
2047 793
2047 248
2047 259
2047 260
2047 2088
2047 132
2047 2
2047 16
2048 2049
2048 119
2049 2048
2049 330
2050 1935
2051 1676
2051 2052
2051 2055
2052 2051
2052 1676
2052 100
2053 1676
2053 2498
2054 2541
2054 2542
2054 1676
2054 605
2055 1676
2055 2051
2056 2023
2057 46
2057 2058
2057 58
2058 46
2058 2057
2058 58
2059 770
2060 1204
2060 2061
2061 2060
2062 2063
2063 2062
2063 23
2064 1672
2064 124
2065 2066
2066 23
2066 2125
2066 2065
2066 2168
2067 2068
2067 2069
2067 352
2067 2070
2067 2071
2067 2072
2068 2072
2068 2071
2068 2067
2068 2069
2068 352
2068 110
2068 28
2068 32
2069 2072
2069 2071
2069 2067
2069 2068
2069 352
2069 110
2069 28
2070 352
2070 32
2071 2072
2071 2069
2071 352
2071 32
2071 550
2071 235
2072 2071
2072 2069
2072 352
2072 32
2072 550
2072 235
2073 194
2073 352
2073 32
2073 237
2074 290
2075 1270
2075 572
2076 2077
2076 1665
2076 1561
2076 58
2076 1666
2076 1667
2076 2080
2076 2081
2077 2076
2077 1665
2077 1561
2077 58
2077 1666
2077 1667
2077 2080
2077 2081
2078 2079
2078 1561
2078 1665
2078 58
2078 1666
2078 1667
2078 2234
2078 2081
2079 2078
2079 1561
2079 1665
2079 58
2079 1666
2079 1667
2079 2234
2079 2081
2080 137
2080 2076
2080 2077
2080 2304
2080 2424
2080 2425
2080 58
2080 1666
2080 1667
2081 2234
2081 2078
2081 2079
2081 1561
2081 1665
2081 58
2081 1666
2081 1667
2081 1668
2081 270
2081 2141
2081 24
2081 23
2082 2083
2082 2084
2082 181
2082 182
2083 2084
2083 2082
2083 181
2083 182
2084 2083
2084 2082
2084 181
2084 182
2085 23
2086 2087
2086 368
2086 1221
2086 1228
2087 1228
2087 2086
2087 368
2087 1221
2088 384
2088 1523
2088 2047
2088 19
2089 1993
2089 1748
2089 248
2090 2271
2091 1754
2092 698
2092 343
2092 340
2092 32
2092 2093
2093 343
2093 340
2093 32
2093 2092
2093 698
2094 28
2094 1741
2094 319
2094 118
2094 2
2094 32
2094 23
2094 24
2094 25
2094 39
2094 2002
2094 58
2094 10
2094 56
2094 57
2095 2096
2095 32
2095 954
2095 2097
2095 178
2095 132
2096 2095
2097 2158
2097 32
2097 954
2097 2095
2098 2537
2098 954
2098 28
2099 32
2099 31
2099 2208
2100 32
2100 237
2100 2
2101 230
2101 246
2101 32
2101 2
2101 27
2101 185
2101 961
2101 347
2101 237
2102 2456
2102 226
2102 28
2102 237
2102 184
2103 32
2103 394
2103 2
2104 347
2104 32
2105 2505
2105 2106
2106 2105
2106 2505
2107 32
2107 31
2107 237
2108 23
2108 176
2109 228
2109 340
2110 63
2111 2280
2111 63
2112 3
2112 63
2113 63
2113 61
2113 27
2114 2482
2114 63
2115 63
2115 3
2116 2118
2116 2117
2116 472
2117 2118
2117 2116
2117 472
2117 1351
2118 2116
2118 2117
2118 472
2119 100
2119 2120
2119 174
2120 101
2120 2119
2120 100
2121 421
2121 112
2121 118
2122 2123
2123 2122
2123 112
2123 23
2124 2041
2124 620
2125 73
2125 23
2126 23
2127 37
2127 1308
2128 46
2128 1613
2128 8
2129 251
2130 935
2130 2131
2130 2132
2130 2133
2131 935
2131 2130
2131 2132
2131 2133
2132 2130
2132 2131
2132 2133
2133 935
2133 2130
2133 2131
2133 2132
2134 1799
2134 178
2134 982
2134 2135
2135 982
2135 2134
2136 2137
2136 28
2136 251
2136 374
2136 153
2137 2136
2137 28
2138 2139
2139 2138
2139 440
2139 72
2140 606
2140 2141
2140 194
2141 23
2141 2140
2141 606
2141 2081
2141 270
2142 606
2142 2144
2143 23
2143 28
2143 401
2144 2142
2144 2145
2145 2452
2145 2144
2145 1693
2146 2147
2146 1785
2146 320
2147 1785
2147 2146
2147 2364
2147 38
2147 23
2147 373
2147 2153
2147 10
2148 2149
2148 2024
2148 2150
2148 2151
2149 2148
2150 2024
2150 2148
2150 2151
2151 2024
2151 2150
2151 2148
2151 68
2152 55
2152 23
2152 28
2152 373
2153 38
2153 23
2153 373
2153 2147
2154 2287
2154 2288
2155 2154
2155 1557
2155 1083
2156 2157
2156 27
2157 2156
2157 371
2158 2097
2158 32
2159 407
2159 354
2160 1086
2160 192
2160 1085
2160 213
2161 2162
2161 367
2161 106
2161 228
2161 368
2161 44
2161 46
2161 58
2161 2163
2161 1713
2161 1712
2161 829
2161 830
2161 509
2161 2164
2162 2161
2163 2263
2163 2264
2163 2262
2163 73
2163 1711
2163 1713
2163 828
2163 46
2163 830
2163 1047
2163 1712
2164 2
2164 31
2164 2161
2164 106
2165 1821
2165 625
2165 1449
2166 246
2166 495
2166 2
2166 355
2166 205
2166 23
2166 1589
2167 376
2167 377
2168 2066
2169 205
2169 2443
2170 2171
2170 411
2171 2170
2171 411
2172 2173
2173 2172
2173 2255
2175 2176
2175 404
2175 982
2175 333
2175 28
2176 2175
2176 404
2176 982
2176 333
2177 1450
2178 2179
2178 1946
2178 1945
2178 1450
2178 1947
2179 2178
2179 1946
2179 1945
2179 1450
2179 1947
2180 23
2180 2181
2180 2182
2181 2182
2181 2180
2182 1190
2182 1192
2182 2181
2182 2180
2183 2184
2183 410
2183 408
2183 1108
2183 654
2183 23
2184 2183
2184 410
2184 408
2184 1108
2184 654
2184 23
2184 409
2184 167
2185 1192
2185 1190
2185 1191
2185 28
2186 868
2186 619
2186 32
2186 873
2186 1702
2187 37
2187 676
2187 1453
2188 178
2188 32
2189 614
2189 662
2190 2191
2190 923
2190 2192
2190 2193
2191 2192
2191 2193
2191 2190
2191 923
2192 2193
2192 2191
2192 923
2192 2190
2193 2192
2193 2191
2193 923
2193 2190
2194 2196
2194 83
2194 189
2194 2197
2194 1885
2195 205
2196 2194
2197 2194
2197 83
2197 189
2198 83
2198 1429
2199 100
2199 191
2200 390
2200 57
2200 175
2201 1786
2201 2202
2202 2201
2202 1786
2203 1243
2204 3
2204 4
2205 3
2205 60
2205 4
2206 2207
2207 2206
2208 24
2208 253
2209 2210
2209 72
2209 511
2209 729
2209 480
2209 726
2210 2209
2211 2212
2211 23
2212 2211
2213 871
2213 1451
2214 2215
2214 32
2215 2214
2215 32
2216 355
2217 2218
2217 46
2217 58
2217 1893
2217 1613
2217 956
2218 46
2218 2217
2218 956
2218 1893
2219 73
2219 928
2219 673
2219 674
2219 675
2219 23
2220 550
2220 73
2220 354
2220 1256
2221 46
2221 75
2221 2045
2222 2223
2222 23
2223 2222
2223 23
2224 742
2225 488
2225 23
2226 413
2226 412
2226 57
2226 398
2226 1587
2226 491
2226 560
2227 2228
2227 25
2228 2227
2229 335
2230 1351
2230 2231
2230 694
2231 1351
2231 2230
2231 694
2232 1215
2232 1214
2232 2233
2232 1159
2232 570
2233 2232
2233 1215
2233 1159
2233 1214
2234 2078
2234 2079
2234 1561
2234 58
2234 1666
2234 1667
2234 1668
2234 2081
2235 1597
2235 2236
2235 2237
2236 1597
2236 2235
2236 2237
2237 1597
2237 2235
2237 2236
2237 194
2238 1957
2238 23
2238 24
2239 858
2240 244
2240 178
2240 397
2240 23
2240 25
2241 2242
2241 2243
2242 2241
2242 460
2242 2243
2243 2
2243 460
2243 2242
2243 2538
2244 2245
2244 31
2244 33
2244 28
2244 23
2245 2244
2245 33
2246 2247
2246 2248
2246 35
2247 2246
2248 2246
2248 2247
2249 46
2249 178
2250 58
2251 2252
2251 23
2251 56
2251 57
2251 72
2251 354
2252 2251
2253 23
2253 411
2253 2211
2254 2255
2254 1431
2255 2173
2255 2254
2256 1261
2256 1164
2256 181
2256 182
2257 1986
2258 357
2258 359
2258 1075
2258 358
2258 375
2258 2330
2258 2331
2258 664
2258 2329
2258 682
2258 107
2259 1805
2260 37
2260 773
2261 564
2261 374
2261 251
2261 23
2261 26
2261 386
2262 2263
2262 2264
2262 2163
2263 2163
2263 2262
2263 2264
2264 2163
2264 2262
2264 2263
2265 103
2266 1829
2267 2268
2267 355
2268 2267
2269 23
2269 355
2269 239
2269 482
2269 1939
2269 406
2269 13
2270 23
2270 37
2270 2
2270 350
2270 72
2270 1939
2271 35
2271 2272
2271 2090
2272 35
2272 2271
2273 2332
2273 370
2273 100
2274 351
2274 230
2274 1349
2274 28
2274 32
2275 637
2276 1448
2276 2277
2276 322
2276 230
2276 1290
2276 923
2277 2276
2277 322
2277 1290
2277 923
2277 230
2278 1448
2278 1447
2279 1447
2279 46
2279 1448
2279 23
2280 2111
2280 63
2280 1802
2281 2282
2281 2283
2281 106
2282 2281
2283 192
2283 2281
2284 1306
2284 520
2284 1532
2285 373
2285 244
2285 178
2286 1583
2286 208
2287 2288
2287 2154
2288 2287
2288 2154
2289 2290
2289 843
2289 2291
2289 67
2290 2289
2290 843
2290 2291
2290 67
2291 2289
2291 2290
2291 843
2291 67
2292 2293
2293 362
2293 2292
2294 1759
2294 1760
2294 2295
2294 333
2294 25
2295 1759
2295 1760
2295 2294
2296 58
2297 23
2297 36
2297 2296
2297 58
2298 461
2298 1771
2299 2300
2299 2301
2300 2299
2300 785
2301 2299
2302 1332
2302 1864
2303 49
2303 32
2303 2304
2303 1802
2304 49
2304 32
2304 2303
2304 2424
2304 2080
2305 28
2305 107
2305 2
2305 277
2305 249
2305 278
2306 2307
2306 309
2306 1643
2307 2306
2307 309
2307 1643
2308 29
2308 2309
2309 2308
2309 29
2310 29
2310 24
2310 56
2310 57
2310 626
2311 2312
2311 868
2312 2311
2312 868
2313 1700
2314 759
2314 329
2315 2316
2315 2317
2315 3
2316 2315
2317 3
2317 2315
2317 2316
2318 1067
2319 1435
2320 614
2321 2322
2321 614
2321 100
2322 2321
2322 100
2323 3
2323 320
2323 60
2323 2324
2324 3
2324 320
2324 60
2324 2323
2325 2451
2325 2436
2325 3
2325 213
2325 2
2325 27
2326 3
2326 320
2327 614
2327 1968
2327 258
2328 614
2329 2330
2329 2331
2329 2258
2329 664
2329 682
2329 107
2329 357
2330 357
2330 359
2330 1075
2330 358
2330 375
2330 2329
2330 2331
2330 2258
2330 664
2330 107
2330 682
2330 100
2330 151
2331 357
2331 359
2331 1075
2331 358
2331 375
2331 2330
2331 2258
2331 664
2331 2329
2332 2273
2332 370
2333 773
2333 2216
2334 37
2334 1967
2335 60
2335 321
2336 112
2336 53
2336 436
2336 1196
2336 28
2336 111
2337 1157
2337 1916
2338 2420
2339 23
2339 2340
2340 2339
2341 2379
2341 460
2341 2
2342 2343
2342 1266
2343 2342
2343 1629
2343 31
2343 746
2344 2345
2344 489
2344 2346
2344 23
2345 2344
2345 489
2345 23
2346 489
2346 2344
2347 32
2347 185
2347 342
2347 926
2347 2
2347 253
2347 995
2348 49
2348 1802
2348 32
2348 554
2349 2350
2349 2351
2349 229
2349 2352
2349 35
2350 2426
2350 2351
2350 229
2350 2352
2351 2426
2351 2350
2351 229
2351 2352
2352 2351
2352 2350
2352 229
2352 2349
2352 2426
2352 812
2353 348
2353 2354
2353 178
2353 1798
2354 348
2354 2353
2354 1798
2354 178
2355 56
2355 57
2355 746
2356 2357
2357 2356
2357 68
2358 2359
2358 495
2358 424
2358 24
2358 433
2358 28
2358 112
2359 2358
2359 495
2359 424
2359 24
2359 433
2359 28
2359 112
2360 23
2361 2362
2361 2363
2362 800
2362 10
2363 2361
2363 2362
2363 800
2363 10
2364 1785
2364 2147
2365 2366
2365 72
2365 23
2365 354
2366 2365
2367 1070
2367 2368
2367 2369
2367 2370
2367 2371
2367 2372
2367 2373
2368 1070
2368 2369
2368 2370
2368 2371
2368 2367
2368 2372
2368 2373
2369 1070
2369 2368
2369 2370
2369 2371
2369 2367
2369 2372
2369 2373
2370 1070
2370 2368
2370 2369
2370 2371
2370 2367
2370 2372
2370 2373
2371 1070
2371 2368
2371 2369
2371 2370
2371 2367
2371 2372
2371 2373
2372 1070
2372 2368
2372 2369
2372 2370
2372 2371
2372 2367
2372 2373
2373 1070
2373 2368
2373 2369
2373 2370
2373 2371
2373 2367
2373 2372
2374 247
2374 32
2374 472
2374 38
2375 2376
2375 72
2375 23
2376 2375
2377 2378
2377 2341
2377 460
2377 2379
2378 2377
2378 2341
2378 460
2379 2341
2379 2
2380 46
2380 1761
2381 361
2381 175
2381 257
2382 72
2382 23
2382 361
2383 698
2383 28
2384 1587
2385 2386
2386 2385
2386 2387
2386 208
2387 208
2387 2386
2388 151
2389 1381
2389 2
2390 1493
2390 386
2390 374
2390 251
2391 334
2392 1267
2393 1589
2394 570
2394 2395
2395 570
2396 2397
2397 2477
2397 61
2397 2396
2398 2399
2398 23
2399 2398
2399 23
2400 800
2400 10
2400 2450
2400 23
2401 1397
2401 3
2401 1881
2402 1067
2403 149
2403 100
2403 101
2404 205
2405 2406
2405 509
2405 46
2405 45
2406 2405
2407 28
2407 2008
2408 290
2409 1561
2409 1665
2409 58
2410 770
2410 2411
2411 770
2411 2410
2412 770
2412 2059
2412 710
2412 176
2412 23
2412 25
2413 2416
2413 2414
2413 1047
2413 2415
2413 1045
2413 2417
2413 46
2413 1192
2413 58
2413 509
2413 395
2414 2413
2414 1047
2414 2415
2414 2416
2415 2414
2415 2413
2415 1047
2415 2416
2416 2413
2416 2414
2416 1047
2416 2415
2417 24
2417 23
2417 1047
2417 46
2417 2413
2417 1192
2418 547
2419 72
2419 598
2419 23
2420 2338
2421 25
2421 360
2421 2422
2422 25
2422 360
2422 2421
2423 170
2423 836
2423 835
2423 187
2424 2304
2424 2080
2424 2425
2425 32
2426 229
2426 32
2426 2349
2427 132
2427 165
2427 23
2428 2429
2428 58
2428 2430
2428 46
2428 1613
2428 7
2428 400
2428 2
2429 2428
2430 2428
2430 58
2431 2432
2432 2431
2433 2434
2433 1187
2434 2433
2434 1187
2435 354
2435 2
2435 2436
2435 31
2435 37
2435 36
2436 2325
2436 2451
2436 2435
2436 31
2436 2
2437 2438
2437 178
2437 32
2438 2437
2439 107
2439 191
2439 100
2439 370
2440 23
2440 1025
2440 406
2440 13
2440 1939
2441 208
2442 320
2442 1344
2443 205
2443 2169
2444 2445
2444 394
2445 2444
2445 394
2446 2447
2446 81
2447 2446
2447 81
2448 1702
2449 23
2450 2400
2450 28
2450 23
2451 2325
2451 2436
2451 106
2452 30
2452 2145
2453 28
2453 23
2454 2455
2454 354
2455 2454
2456 2102
2456 226
2456 28
2456 237
2457 2456
2457 2102
2457 226
2458 1997
2458 2459
2458 111
2458 153
2458 31
2459 2458
2460 920
2460 347
2461 827
2462 2463
2462 23
2463 2462
2463 23
2464 2465
2464 1083
2465 2464
2465 1083
2466 1690
2467 25
2467 24
2467 23
2467 454
2467 40
2468 28
2468 31
2468 23
2468 178
2468 40
2468 454
2469 1860
2469 1861
2469 1859
2469 1866
2469 1862
2469 1863
2469 46
2470 60
2470 3
2471 1127
2472 28
2472 253
2472 32
2472 2473
2473 352
2473 28
2473 32
2473 2474
2474 247
2474 28
2475 32
2475 472
2475 49
2476 23
2476 1714
2476 597
2476 619
2476 32
2477 3
2478 28
2478 23
2479 805
2479 176
2479 250
2479 39
2480 28
2480 31
2480 23
2480 805
2480 176
2480 2453
2481 2482
2481 2114
2481 63
2482 2481
2482 2114
2482 63
2483 2484
2483 49
2483 32
2484 2483
2485 28
2485 23
2485 2486
2485 24
2485 25
2486 28
2486 2485
2486 40
2486 23
2487 355
2488 23
2488 2489
2488 56
2488 57
2489 23
2489 2488
2490 2491
2490 178
2490 23
2491 2490
2491 178
2491 23
2492 403
2492 2493
2493 2492
2494 644
2494 2495
2494 881
2495 644
2495 2494
2495 881
2496 2497
2496 664
2496 100
2497 2496
2497 664
2497 100
2498 2053
2498 1676
2499 36
2499 42
2499 29
2499 990
2500 2501
2500 2108
2501 2500
2501 2108
2502 2503
2502 374
2502 251
2503 2502
2503 374
2503 251
2504 25
2504 132
2504 23
2505 2105
2505 2106
2505 1872
2505 165
2506 400
2506 194
2506 399
2507 28
2508 674
2508 675
2508 73
2508 23
2508 24
2508 25
2508 37
2509 2510
2509 106
2510 2509
2511 2512
2511 67
2512 67
2512 2511
2513 23
2513 25
2513 244
2513 2514
2513 382
2514 244
2514 23
2514 25
2514 397
2514 382
2515 9
2515 23
2515 266
2515 2516
2516 9
2516 23
2516 266
2516 2515
2517 1006
2517 2518
2517 3
2517 60
2517 27
2517 62
2518 1006
2518 2517
2518 3
2518 60
2518 27
2518 62
2519 25
2519 270
2519 10
2519 69
2519 2520
2519 32
2519 2102
2519 2521
2519 2348
2520 2519
2520 23
2520 178
2520 10
2520 35
2520 69
2520 58
2521 2526
2522 2523
2522 25
2523 2522
2523 25
2524 2525
2524 3
2524 63
2525 2524
2525 3
2525 63
2526 2521
2527 251
2527 28
2527 23
2527 261
2528 1441
2528 367
2528 36
2528 990
2529 2530
2529 964
2529 106
2529 46
2530 964
2530 2529
2531 2532
2531 1821
2531 35
2532 2531
2532 1821
2532 35
2533 1823
2533 2534
2533 205
2533 23
2533 27
2534 1823
2534 2533
2534 205
2534 23
2534 27
2535 205
2536 1449
2537 2098
2537 954
2538 2243
2538 2242
2539 1236
2539 2540
2540 2539
2540 1236
2541 2542
2541 2054
2542 2541
2542 2054
2542 194
2542 378
2543 2544
2544 2543
2544 23
2545 2341
2545 460
2546 1083
2546 2547
2547 2546
2547 1083
2548 2549
2548 2550
2549 3257
2549 3287
2549 2550
2550 2549
2550 2548
2550 2568
2550 2661
2550 2660
2550 2662
2550 2663
2550 2664
2550 2665
2550 2666
2550 2667
2550 2556
2550 2974
2551 2552
2551 2553
2551 2554
2551 2555
2551 2556
2551 2557
2551 2558
2551 2559
2552 2561
2552 2560
2552 2562
2552 2563
2552 2564
2552 2565
2552 2566
2552 2567
2552 2568
2552 2569
2552 2553
2552 2551
2552 2557
2552 2556
2552 2558
2553 3371
2553 2552
2553 2551
2553 2556
2553 2557
2554 2551
2554 2555
2554 3112
2554 2557
2554 3111
2554 2559
2554 2626
2554 3264
2555 2551
2555 2554
2555 3150
2555 2556
2555 2561
2555 2557
2556 3150
2556 2555
2556 2667
2556 2554
2556 2557
2556 2558
2556 2770
2556 3154
2556 2766
2556 2628
2556 2753
2556 2626
2556 2769
2556 2999
2556 3232
2556 2692
2556 3012
2556 2773
2556 2777
2556 2778
2556 2750
2556 2802
2556 3151
2557 2554
2557 3111
2557 3112
2557 3083
2557 2667
2557 2555
2557 2556
2557 2770
2557 2765
2557 3209
2557 2766
2557 2750
2557 2767
2557 2753
2557 2769
2557 2686
2557 2771
2557 3012
2557 2626
2557 2625
2557 2776
2557 2919
2557 2958
2557 2706
2557 2899
2558 2823
2558 2566
2558 2870
2558 2628
2558 2667
2558 2871
2558 2881
2558 2837
2558 2872
2558 2891
2558 2753
2558 2822
2558 2973
2558 2972
2558 2625
2558 2707
2558 2873
2558 2874
2558 2969
2558 2763
2558 2875
2558 2825
2558 2868
2558 2869
2558 2877
2558 2974
2558 2770
2558 2750
2558 2709
2558 2603
2558 2975
2559 2558
2559 3179
2559 2554
2560 2561
2560 2552
2560 2562
2560 2563
2560 2564
2560 2565
2560 2566
2560 2567
2560 2568
2560 2569
2560 2570
2560 2571
2561 3180
2561 2560
2561 2552
2561 2562
2561 2563
2561 2564
2561 2565
2561 2566
2561 2567
2561 2568
2561 2569
2561 2558
2561 2707
2561 2628
2561 2802
2561 2557
2561 2556
2561 3154
2561 2667
2562 2561
2562 2560
2562 2552
2562 2563
2562 2564
2562 2565
2562 2566
2562 2567
2562 2568
2562 2569
2562 2570
2562 2571
2563 2561
2563 2560
2563 2552
2563 2562
2563 2564
2563 2565
2563 2566
2563 2567
2563 2568
2563 2569
2563 2558
2564 2561
2564 2560
2564 2552
2564 2562
2564 2563
2564 2565
2564 2566
2564 2567
2564 2568
2564 2569
2564 2558
2565 2561
2565 2560
2565 2552
2565 2562
2565 2563
2565 2564
2565 2566
2565 2567
2565 2568
2565 2569
2565 3302
2565 2558
2566 2561
2566 2560
2566 2552
2566 2562
2566 2563
2566 2564
2566 2565
2566 2567
2566 2568
2566 2823
2566 2558
2566 2628
2566 2882
2567 2561
2567 2560
2567 2552
2567 2562
2567 2563
2567 2564
2567 2565
2567 2566
2567 2568
2567 2569
2567 3086
2567 3087
2567 3088
2567 2558
2568 2561
2568 2560
2568 2552
2568 2562
2568 2563
2568 2564
2568 2565
2568 2566
2568 2567
2568 2569
2568 2550
2568 2661
2568 2660
2568 2662
2568 2663
2568 2664
2568 2665
2568 2666
2568 2558
2568 2667
2569 2561
2569 2560
2569 2552
2569 2562
2569 2563
2569 2564
2569 2565
2569 2566
2569 2567
2569 2568
2569 2558
2570 2561
2570 2560
2570 2552
2570 2562
2570 2563
2570 2564
2570 2565
2570 2566
2570 2567
2570 2568
2570 2569
2570 2571
2571 2561
2571 2560
2571 2552
2571 2562
2571 2563
2571 2564
2571 2565
2571 2566
2571 2567
2571 2568
2571 2569
2571 3179
2571 2558
2571 2570
2572 2573
2572 2574
2572 2575
2572 2576
2572 2577
2572 2578
2572 2579
2572 2580
2572 2581
2572 2582
2572 2583
2572 2584
2573 2572
2573 2936
2573 2576
2573 2583
2573 2954
2573 2577
2573 2579
2573 2578
2574 2954
2574 2696
2574 2678
2574 2575
2574 2572
2574 3178
2575 2574
2575 2572
2575 2954
2575 3267
2576 2582
2576 2583
2576 2693
2576 2674
2576 2673
2576 2604
2576 2584
2576 2579
2576 2612
2576 2725
2576 2709
2577 2573
2577 2572
2577 2954
2577 2578
2577 2579
2578 2584
2578 2902
2578 2579
2578 2577
2578 2573
2578 2572
2578 2582
2578 2576
2578 2625
2578 2676
2578 2965
2579 2835
2579 2584
2579 2578
2579 2902
2579 2676
2579 2744
2579 2753
2579 2605
2579 2909
2579 2625
2579 2963
2579 2723
2579 2840
2579 2693
2579 2964
2579 2948
2579 2613
2579 2965
2579 2725
2579 2836
2579 2750
2579 2758
2579 2600
2580 2693
2580 2677
2580 2605
2580 2613
2580 2630
2580 2604
2580 2579
2580 2835
2580 2654
2580 2648
2580 3002
2580 2558
2580 2628
2580 2685
2580 2707
2580 2766
2580 3149
2581 2600
2581 2711
2581 2573
2581 2572
2581 2602
2581 2579
2581 2612
2582 2576
2582 2583
2582 2915
2582 2916
2583 2576
2583 2578
2583 2582
2584 2578
2584 2902
2584 2579
2584 2711
2584 2576
2584 2901
2584 2583
2584 2605
2584 2900
2584 2903
2584 2904
2584 2905
2584 2906
2584 2834
2584 2833
2584 2907
2584 2908
2584 2625
2584 2909
2584 2706
2584 2777
2585 2586
2585 2561
2585 2558
2586 2585
2586 3157
2587 2588
2587 2589
2587 2590
2587 2591
2587 2592
2587 2593
2587 2594
2587 2595
2588 2587
2588 2596
2588 2597
2588 2598
2588 2599
2589 3222
2589 2591
2589 3223
2589 2587
2589 2684
2590 2625
2590 2734
2590 2760
2590 2593
2590 2587
2590 2592
2590 2594
2590 2832
2590 2706
2590 2769
2590 2653
2590 2782
2590 2731
2591 3222
2591 2589
2591 3223
2591 2595
2591 2648
2591 2615
2592 2731
2592 2590
2592 2594
2592 2733
2593 2590
2593 2734
2593 2832
2593 2594
2593 2760
2593 2731
2594 2812
2594 2590
2594 2593
2594 2832
2594 2782
2594 2760
2594 2653
2594 2734
2594 2732
2594 2731
2594 2648
2594 2778
2594 2733
2594 2729
2594 2767
2595 2684
2595 2668
2595 2685
2595 2686
2595 2667
2595 2603
2595 2687
2595 2688
2596 2615
2596 2588
2597 2598
2597 2599
2598 3009
2598 2776
2598 2769
2598 2706
2598 2588
2598 2597
2598 2599
2598 2762
2599 2650
2599 2690
2599 2689
2599 2691
2599 2597
2599 2598
2599 2692
2599 2588
2599 2686
2599 2706
2599 2625
2599 2628
2599 2776
2599 2773
2599 2777
2599 2750
2599 2556
2599 2667
2600 2601
2600 2581
2600 2602
2600 2603
2600 2604
2600 2605
2600 2576
2600 2579
2601 2600
2601 2722
2601 2602
2601 2694
2601 2670
2601 2603
2601 2723
2601 2700
2601 2605
2602 2700
2602 3182
2602 2678
2602 3183
2602 2604
2602 2693
2602 2601
2602 2600
2602 2603
2602 2679
2602 3184
2602 3043
2602 2839
2602 2723
2602 2694
2602 3158
2602 2688
2602 2753
2602 2768
2602 2758
2602 2765
2602 2838
2603 2687
2603 2688
2603 2602
2603 2700
2603 2693
2603 2601
2603 2600
2603 2604
2603 2678
2603 2840
2603 2753
2603 2667
2603 2579
2603 2625
2603 2730
2603 2613
2603 2670
2603 2630
2603 2677
2603 2801
2603 2763
2603 2595
2603 2729
2603 2685
2603 2628
2603 2626
2603 2750
2603 2758
2603 2771
2603 2770
2603 2769
2603 2556
2603 2557
2603 2686
2603 3133
2603 2773
2603 3012
2603 2558
2603 2706
2603 2668
2603 2629
2603 2648
2603 2656
2603 2657
2603 2654
2603 2653
2603 2679
2603 3045
2603 2778
2604 2675
2604 2679
2604 3043
2604 2678
2604 2602
2604 3182
2604 3184
2604 3217
2604 3218
2604 2677
2604 2681
2604 3045
2604 2682
2604 3027
2604 3031
2604 2674
2604 2673
2604 3219
2604 2680
2604 2630
2604 2580
2604 2839
2604 3062
2604 3158
2604 3107
2604 2696
2604 2670
2604 2723
2604 2835
2604 2801
2604 2625
2605 2613
2605 2580
2605 3219
2605 2625
2605 2831
2605 2627
2605 2604
2605 2679
2605 2678
2605 2680
2605 3107
2605 2681
2605 2696
2605 2632
2605 2602
2605 2710
2605 2729
2605 2835
2605 2579
2605 2723
2605 2964
2605 3305
2605 2963
2605 2948
2605 2609
2605 2697
2605 2727
2605 3188
2605 2612
2605 2842
2605 2818
2605 2836
2605 2709
2605 2708
2605 2654
2605 2730
2605 2611
2605 2677
2605 2603
2605 2685
2605 2628
2605 2998
2605 2987
2605 3045
2605 3030
2605 3029
2605 2995
2605 2728
2605 2607
2605 2725
2605 3324
2605 3306
2605 3346
2605 3344
2605 3345
2605 2887
2605 2886
2605 2889
2605 2909
2605 3233
2605 2826
2606 2607
2606 2608
2606 2609
2606 2605
2606 2610
2606 2611
2606 2612
2607 2606
2607 2605
2607 2609
2607 2610
2608 2606
2608 2609
2608 2612
2608 3176
2608 2725
2608 2614
2609 2610
2609 3178
2609 2614
2609 3224
2609 2727
2609 2831
2609 2697
2609 2576
2609 3307
2609 3107
2609 3188
2609 2842
2609 2728
2609 3288
2609 2715
2609 2632
2609 2723
2609 2840
2610 2609
2610 2900
2610 2842
2610 3307
2610 2605
2610 2723
2610 2947
2610 2632
2610 3323
2611 2609
2611 2610
2611 2612
2611 3178
2611 2614
2611 3307
2611 2607
2611 2842
2611 2606
2611 2632
2612 2842
2612 2610
2612 2609
2612 2723
2612 3307
2612 2611
2612 3237
2612 3238
2612 2714
2612 3360
2612 3334
2612 2712
2612 2715
2612 2716
2612 2840
2612 2949
2612 3009
2612 2694
2612 2632
2612 2607
2612 2606
2612 2631
2612 2633
2612 2947
2612 3158
2612 2605
2613 3167
2613 2580
2613 3219
2613 3158
2613 2604
2613 2680
2613 2679
2613 2677
2613 2710
2613 2730
2613 3162
2614 3224
2614 3178
2614 2609
2614 2727
2614 3225
2614 3226
2614 2608
2614 3176
2614 2725
2615 2596
2615 2591
2616 2617
2616 2618
2616 2619
2616 2620
2616 2621
2616 2622
2617 2616
2617 3293
2617 2618
2617 2621
2617 2620
2617 2864
2618 2619
2618 2745
2618 3321
2618 2645
2618 2621
2618 2616
2618 2622
2618 2670
2618 2625
2618 3141
2619 2618
2619 2644
2619 2645
2619 2621
2620 2618
2620 2616
2620 2621
2620 2617
2620 2864
2621 3141
2621 2618
2621 2670
2621 2864
2621 2620
2621 2625
2622 2618
2622 2616
2622 2621
2623 2624
2623 2625
2623 2626
2623 2627
2623 2628
2623 2629
2623 2630
2623 2558
2624 2625
2624 2627
2624 2623
2624 2626
2624 2558
2624 2628
2624 2629
2625 2605
2625 2677
2625 2670
2625 2648
2625 2653
2625 2580
2625 2694
2625 2963
2625 3305
2625 2584
2625 2693
2625 2834
2625 3113
2625 2909
2625 2579
2625 2835
2625 2964
2625 2730
2625 2801
2625 2604
2625 2603
2625 2753
2625 2628
2625 2744
2625 3061
2625 2654
2625 2626
2625 2707
2625 2799
2625 2685
2625 2870
2625 2871
2625 2875
2625 3040
2625 2776
2625 2558
2625 2667
2625 3232
2625 2773
2625 2557
2625 2750
2625 2770
2625 2678
2625 3306
2625 2778
2625 2692
2625 2758
2625 3251
2625 2780
2625 2808
2625 2822
2625 2869
2625 2680
2625 3041
2625 2629
2625 2891
2625 2874
2625 3322
2625 2656
2625 3048
2625 3044
2625 3046
2626 2750
2626 2625
2626 3264
2626 3247
2626 2677
2626 2840
2626 2613
2626 2580
2626 2628
2626 3167
2626 2629
2626 2630
2626 2623
2626 2624
2626 2729
2626 2603
2626 2707
2626 2957
2626 2956
2626 2761
2626 2773
2626 2777
2626 3133
2626 2753
2626 2778
2626 3015
2626 2692
2626 2999
2626 2557
2626 2556
2626 2769
2626 2771
2626 3012
2626 2653
2626 2686
2626 2783
2626 3206
2626 2871
2626 2685
2626 2780
2627 2827
2627 2859
2627 2605
2627 2964
2627 2682
2627 3219
2627 2828
2627 2623
2627 2624
2627 2626
2627 2677
2627 2630
2627 3361
2628 2667
2628 2625
2628 2870
2628 2871
2628 2580
2628 2613
2628 3167
2628 3233
2628 2767
2628 2729
2628 2626
2628 2630
2628 2709
2628 2603
2628 2750
2628 2753
2628 2561
2628 2558
2628 2822
2628 2809
2628 3234
2628 2891
2628 2973
2628 2707
2628 2874
2628 2875
2628 2763
2628 2868
2628 2629
2628 2764
2628 3133
2628 2773
2628 2778
2628 2769
2628 2686
2628 2771
2628 2770
2628 2557
2628 2556
2628 2685
2628 2872
2628 3055
2628 2776
2628 2706
2628 2599
2628 2777
2628 2692
2628 2780
2628 2758
2628 2766
2628 3231
2628 3232
2628 2808
2629 2625
2629 2630
2629 2613
2629 2677
2629 2626
2629 2627
2629 2623
2629 2624
2629 2628
2629 2874
2629 3133
2629 2558
2629 2778
2629 2753
2629 2603
2629 2707
2629 2955
2629 2750
2629 2763
2629 3139
2629 3170
2630 2677
2630 2827
2630 2613
2630 2831
2630 3233
2630 2580
2630 2604
2630 3062
2630 2626
2630 2629
2630 2625
2630 2840
2630 3156
2630 2627
2630 2859
2631 2938
2631 2937
2631 2612
2631 2842
2631 3009
2631 2632
2631 3010
2632 2696
2632 2612
2632 2609
2632 3009
2632 2693
2632 2610
2632 2842
2632 2631
2633 2612
2633 2632
2633 2631
2633 3290
2634 2635
2634 2636
2634 2637
2634 2638
2635 2636
2635 3025
2635 3033
2635 2637
2635 2719
2635 2812
2636 3121
2636 3033
2636 3122
2636 3123
2636 3026
2636 2635
2636 2637
2636 2634
2637 2636
2637 2635
2638 2634
2638 2853
2638 2719
2639 2640
2639 2641
2640 3004
2640 2639
2640 3013
2640 3014
2640 2692
2640 2777
2640 3015
2641 2639
2641 3099
2642 2609
2642 2612
2642 2643
2643 2642
2643 2712
2643 2612
2644 2645
2644 2621
2644 2619
2644 2618
2645 2648
2645 2858
2645 2745
2645 3321
2645 2618
2645 2644
2646 2647
2646 2648
2647 2648
2647 2646
2647 2658
2647 2709
2647 3298
2647 2653
2648 2651
2648 2645
2648 2653
2648 2731
2648 2670
2648 2625
2648 2654
2648 2750
2648 3002
2648 2656
2648 2603
2648 2744
2648 2657
2648 3120
2648 3119
2648 2745
2649 2650
2650 2599
2650 2690
2650 2689
2650 2691
2650 2649
2651 2652
2651 2648
2651 2653
2651 2654
2651 2655
2651 2656
2651 2657
2651 2625
2651 2658
2651 2659
2652 2651
2652 2659
2652 3159
2652 2657
2653 2806
2653 2804
2653 2805
2653 2746
2653 2648
2653 2731
2653 2625
2653 2651
2653 2745
2653 2645
2653 2744
2653 2753
2653 2580
2653 2654
2653 3317
2653 2670
2653 2729
2653 2732
2653 3155
2653 2799
2653 2750
2653 2626
2653 2801
2653 2603
2653 2656
2654 2656
2654 2742
2654 2625
2654 2657
2654 2651
2654 2605
2654 2580
2654 2744
2654 2745
2654 2746
2654 2648
2654 2653
2654 2731
2654 2603
2655 2739
2655 2741
2655 2645
2655 2737
2655 2657
2655 2742
2656 2657
2656 2604
2656 3043
2656 2654
2656 2659
2656 2651
2656 2648
2656 2625
2656 2653
2657 2739
2657 2655
2657 3166
2657 2580
2657 2656
2657 2654
2657 2603
2658 2648
2658 2647
2658 2605
2658 2651
2659 2652
2659 2651
2659 2656
2659 2657
2660 2550
2660 2568
2660 2661
2660 2662
2660 2663
2660 2664
2660 2665
2660 2666
2660 2556
2660 2667
2661 2550
2661 2568
2661 2660
2661 2662
2661 2663
2661 2664
2661 2665
2661 2666
2661 3150
2661 2667
2661 2556
2661 2558
2662 2550
2662 2568
2662 2661
2662 2660
2662 2663
2662 2664
2662 2665
2662 2666
2662 3035
2662 2667
2663 2550
2663 2568
2663 2661
2663 2660
2663 2662
2663 2664
2663 2665
2663 2666
2663 2667
2664 2550
2664 2568
2664 2661
2664 2660
2664 2662
2664 2663
2664 2665
2664 2666
2664 2843
2664 2844
2665 2550
2665 2568
2665 2661
2665 2660
2665 2662
2665 2663
2665 2666
2665 2556
2665 2664
2665 2667
2666 3070
2666 2550
2666 2568
2666 2661
2666 2660
2666 2662
2666 2663
2666 2664
2666 2665
2666 2667
2666 2558
2667 3070
2667 2666
2667 2558
2667 2770
2667 2556
2667 2557
2667 3164
2667 2628
2667 2625
2667 2765
2667 3209
2667 2766
2667 2764
2667 2750
2667 3167
2667 2778
2667 2767
2667 2753
2667 2769
2667 2686
2667 2771
2667 2685
2667 2603
2667 2687
2667 2709
2667 2707
2667 2706
2667 3041
2667 3133
2667 3210
2667 3211
2667 2626
2667 3212
2667 2758
2668 2595
2668 2669
2668 2670
2669 2763
2669 2686
2669 2668
2669 2625
2669 2670
2670 2694
2670 2696
2670 2648
2670 2625
2670 2601
2670 2722
2670 2729
2670 2697
2670 2753
2670 2744
2670 2681
2670 3045
2670 2621
2670 2603
2670 2801
2670 3061
2670 2669
2670 2668
2670 3048
2670 2731
2670 2653
2670 2604
2670 2693
2670 3009
2670 2678
2670 2602
2671 2653
2671 2648
2671 2672
2672 3125
2672 2671
2672 2760
2673 2674
2673 2675
2673 2676
2673 2677
2673 2678
2673 2679
2673 2680
2673 2681
2673 2613
2673 2682
2674 2604
2674 2679
2674 2673
2674 2675
2674 2683
2675 2604
2675 3218
2675 2679
2675 2681
2675 3045
2675 2682
2675 3027
2675 3031
2675 2674
2675 2673
2675 2677
2675 2801
2676 2912
2676 3084
2676 3085
2676 2965
2676 2579
2676 2835
2676 2723
2676 2840
2676 3039
2676 2687
2676 2682
2676 3031
2676 3027
2676 2709
2676 2584
2676 2578
2677 2630
2677 2580
2677 2604
2677 2602
2677 2625
2677 2626
2677 2627
2677 2859
2677 2860
2678 2695
2678 2679
2678 3184
2678 3182
2678 2602
2678 2604
2678 2696
2678 2697
2678 2698
2678 2699
2678 2680
2678 3158
2678 2605
2678 2681
2678 2632
2678 2627
2678 2710
2678 3187
2679 3043
2679 3184
2679 2604
2679 2678
2679 2602
2679 3183
2679 3182
2679 3137
2679 3189
2679 2627
2679 2838
2679 3187
2679 2949
2679 3190
2680 3041
2680 2605
2680 2627
2680 3219
2680 2604
2680 2723
2680 2840
2680 2709
2680 2629
2680 2625
2680 2801
2681 2604
2681 2675
2681 3045
2681 2682
2681 3027
2681 3031
2681 2674
2681 2673
2681 2605
2681 2679
2681 2678
2681 3107
2681 2696
2681 2613
2681 2710
2681 2579
2681 2835
2681 2676
2681 3085
2681 2965
2681 2753
2681 2744
2681 2709
2681 2730
2682 2604
2682 2675
2682 3031
2682 2627
2682 2964
2682 2679
2682 2835
2682 2723
2682 2676
2683 2706
2683 2667
2683 2770
2683 2750
2683 3075
2684 2595
2684 3222
2684 2686
2684 2691
2684 2599
2684 2758
2685 3094
2685 2628
2685 2626
2685 2894
2685 2822
2685 2686
2685 2771
2685 3044
2686 3325
2686 2763
2686 2771
2686 2753
2686 2707
2686 2628
2686 2837
2686 2603
2686 2750
2686 2769
2686 2556
2686 2557
2686 2692
2686 2768
2686 2599
2686 2625
2686 2758
2686 2749
2686 2626
2686 2872
2686 2772
2686 2685
2686 3229
2686 3012
2686 2653
2686 3317
2686 2780
2686 2558
2686 2877
2686 2869
2686 2882
2686 2881
2686 2875
2686 2871
2686 2876
2686 2808
2686 2955
2687 2603
2687 2688
2687 2595
2687 2723
2687 3037
2687 3038
2687 3039
2687 2678
2687 2693
2687 2604
2687 2579
2687 2676
2687 2965
2687 2670
2687 2801
2687 2625
2687 2753
2687 2768
2687 2758
2687 2684
2687 3040
2687 2750
2687 2771
2687 2685
2687 2872
2687 2628
2687 2763
2687 2686
2687 2773
2687 3012
2687 3041
2687 2709
2687 2947
2687 2767
2687 3042
2688 2687
2688 2603
2688 2753
2688 2758
2688 2768
2688 2750
2688 2625
2688 2595
2689 2599
2689 2650
2689 2690
2689 2691
2689 2692
2690 2599
2690 2650
2690 2689
2690 2691
2691 2599
2691 2650
2691 2690
2691 2689
2691 2692
2691 3132
2691 2769
2691 2706
2692 3014
2692 3356
2692 2777
2692 2691
2692 3132
2692 2750
2692 3013
2692 2773
2692 3015
2692 2556
2692 2557
2692 2771
2692 2686
2692 2626
2692 2628
2692 3012
2692 2778
2692 2625
2692 2667
2692 2770
2692 3128
2692 3002
2692 2599
2692 2999
2692 3055
2693 2602
2693 2700
2693 2603
2693 2601
2693 2600
2693 2579
2693 2697
2693 2604
2693 2605
2693 3158
2693 2831
2693 2723
2693 2581
2693 2584
2693 2750
2693 2682
2693 3031
2693 3110
2693 2625
2693 2679
2693 2765
2693 2694
2694 2944
2694 2839
2694 2602
2694 2700
2694 2601
2694 2600
2694 2603
2694 2722
2694 2670
2694 2678
2694 2625
2694 2579
2694 2682
2694 3031
2694 2605
2694 2632
2694 2696
2694 2697
2694 2836
2694 2801
2694 2693
2695 2678
2695 2696
2695 2697
2695 2698
2695 2699
2695 2700
2695 2602
2695 2701
2696 2678
2696 2697
2696 2698
2696 2699
2696 2604
2696 2681
2696 2710
2696 2632
2696 2729
2696 2998
2696 3107
2696 3188
2696 2670
2696 2694
2696 2602
2697 3109
2697 2701
2697 2678
2697 2696
2697 2698
2697 2699
2697 2836
2697 2605
2697 2818
2697 2602
2697 2604
2697 2831
2697 2817
2697 2710
2697 2609
2697 2727
2697 2794
2697 2725
2697 2709
2697 2670
2698 2817
2698 2678
2698 2695
2698 2696
2698 2697
2698 2699
2698 2818
2698 2603
2698 2767
2698 2682
2698 2605
2699 2678
2699 2695
2699 2696
2699 2697
2699 2698
2700 2602
2700 2839
2700 2693
2700 2601
2700 2600
2700 2603
2700 2679
2700 2695
2700 2678
2700 2694
2701 2697
2701 2836
2701 2709
2701 2753
2701 2744
2701 2758
2701 2768
2702 2703
2702 2704
2703 2753
2703 2744
2703 2709
2703 3051
2703 2702
2704 2702
2704 3366
2705 2706
2705 2707
2706 2776
2706 2598
2706 2769
2706 2777
2706 2914
2706 2557
2706 2762
2706 2628
2706 2625
2706 2778
2706 2753
2706 2667
2706 2770
2706 2707
2706 2599
2706 2919
2706 2750
2706 2556
2706 2773
2706 2941
2706 3161
2706 2683
2706 3140
2707 3041
2707 2558
2707 2625
2707 2653
2707 2799
2707 2667
2707 2770
2707 2628
2707 2750
2707 2763
2707 2626
2707 2706
2707 2680
2707 3250
2707 3251
2707 2709
2707 2871
2708 2605
2708 2709
2708 2710
2708 2628
2708 2667
2708 2685
2709 2753
2709 2744
2709 2965
2709 2725
2709 2836
2709 2697
2709 2676
2709 2729
2709 2579
2709 2670
2709 2613
2709 2710
2709 2708
2709 2835
2709 3158
2709 2558
2709 3062
2709 2801
2710 2613
2710 2696
2710 2681
2710 2678
2710 2605
2710 3210
2710 3133
2710 2579
2710 2835
2710 2709
2710 2708
2711 2581
2711 2901
2711 2584
2711 2937
2711 2900
2711 2903
2711 2579
2712 2643
2712 2713
2712 2714
2712 2715
2712 2716
2713 2612
2713 2714
2714 2723
2714 2946
2714 2947
2714 2948
2714 2579
2714 2835
2714 2817
2714 2949
2714 2612
2714 2840
2715 2693
2715 2612
2715 2714
2715 2605
2715 2632
2715 2609
2715 2716
2715 2712
2715 2840
2715 2723
2715 2694
2715 3169
2715 2986
2716 2715
2716 3309
2716 2612
2716 2712
2717 2635
2717 2718
2717 2719
2718 2717
2718 2635
2718 2719
2719 2636
2719 2638
2719 3308
2719 3352
2719 3353
2720 2721
2720 2558
2721 2883
2721 3371
2721 3370
2721 3347
2721 2720
2721 2558
2721 2667
2722 2601
2722 2694
2722 2602
2722 3009
2722 2670
2723 2840
2723 2835
2723 2839
2723 3037
2723 2679
2723 3134
2723 3135
2723 2627
2723 2605
2723 2579
2723 2604
2723 2609
2723 2676
2723 3065
2723 2817
2723 2714
2724 2725
2724 2678
2724 2696
2724 2726
2724 2727
2724 2605
2724 2697
2724 2728
2724 2729
2724 2730
2724 2625
2725 2831
2725 2727
2725 2726
2725 2836
2725 2709
2725 2612
2725 2724
2725 2728
2725 2830
2725 2829
2725 2697
2725 2794
2725 3062
2725 2818
2725 2753
2725 2744
2725 2817
2725 2579
2725 2835
2725 2965
2725 2676
2726 2725
2726 2910
2726 3081
2726 2727
2726 2903
2726 2610
2726 2584
2726 2578
2726 2579
2726 2609
2726 2724
2727 2726
2727 3178
2727 2614
2727 3224
2727 2609
2727 2831
2727 2697
2727 2725
2727 2696
2727 2709
2727 2608
2728 2609
2728 2605
2728 2725
2728 2842
2728 2610
2728 2612
2728 2697
2728 2841
2728 2607
2729 2723
2729 2839
2729 3037
2729 2801
2729 2628
2729 2831
2729 3062
2729 2605
2729 2604
2729 2682
2729 2697
2729 2693
2729 2696
2729 2670
2729 2694
2729 2709
2729 2725
2729 2836
2729 2579
2729 2835
2729 2965
2729 2767
2729 2644
2729 2645
2729 2621
2729 2625
2729 3061
2729 2648
2729 2653
2729 2797
2729 2760
2729 3063
2729 2603
2729 2753
2729 2667
2729 2558
2730 2613
2730 3162
2730 2709
2730 2625
2730 2826
2731 2648
2731 2653
2731 2732
2731 2651
2731 2654
2731 2625
2731 2580
2731 2733
2731 2734
2732 2731
2732 2653
2732 2746
2732 2590
2732 3051
2733 2594
2733 2778
2733 2767
2733 3140
2733 2753
2733 3161
2733 2625
2733 2774
2734 2760
2734 2590
2734 2593
2734 2832
2734 2795
2734 2751
2734 2778
2734 2653
2734 2782
2735 2613
2735 2736
2735 2737
2735 2738
2736 2737
2736 2735
2737 3025
2737 3301
2737 2736
2737 2735
2738 2735
2738 2740
2739 2655
2739 2740
2739 2657
2739 2741
2739 2645
2739 2737
2739 2742
2739 2743
2740 2738
2740 2739
2741 2655
2741 2739
2741 2657
2742 2739
2742 2654
2742 2657
2742 2656
2743 2737
2743 2735
2743 2657
2744 2848
2744 2846
2744 2845
2744 2847
2744 2709
2744 2965
2744 3045
2744 2753
2744 2768
2744 2750
2744 2681
2744 2730
2744 3062
2744 2677
2744 2630
2744 2723
2744 2739
2744 2648
2744 2603
2745 3119
2745 2645
2745 3321
2745 2618
2745 3120
2746 2653
2746 2648
2746 2732
2747 2748
2747 2749
2747 2750
2747 2751
2748 2753
2748 2803
2748 2628
2748 2625
2748 2778
2748 2822
2748 2626
2748 2558
2748 2823
2748 2747
2749 2747
2749 2757
2749 2750
2749 2753
2749 2790
2749 2768
2750 2754
2750 2653
2750 2749
2750 2757
2750 2758
2750 2759
2750 2648
2750 2692
2750 2744
2750 2753
2750 2760
2750 2734
2750 2731
2750 2751
2750 2603
2750 2628
2750 2761
2750 2762
2750 2625
2750 2558
2750 2707
2750 2763
2750 2764
2750 2667
2750 2765
2750 2766
2750 2767
2750 2768
2750 2709
2750 2769
2750 2557
2750 2556
2750 2770
2750 2686
2750 2771
2750 2626
2750 2772
2750 2685
2750 2773
2750 2774
2750 2775
2750 2776
2750 2706
2750 2777
2750 2778
2750 2779
2750 2599
2750 2780
2750 2781
2750 2732
2750 2782
2750 2594
2750 2687
2750 2783
2750 2729
2750 2733
2751 2760
2751 2734
2751 2778
2751 2729
2751 2733
2751 2628
2751 2625
2751 2788
2751 2790
2752 2753
2752 2754
2752 2755
2753 2670
2753 2688
2753 2768
2753 2758
2753 2709
2753 2965
2753 3045
2753 2744
2753 2750
2753 2835
2753 2604
2753 2625
2753 2687
2753 3044
2753 2603
2753 3048
2753 2648
2753 2653
2753 2731
2753 2729
2753 2749
2753 2628
2753 2870
2753 2667
2753 2767
2753 2723
2753 2626
2753 2773
2753 2759
2753 2975
2753 2807
2753 2871
2753 2801
2753 2686
2754 2750
2754 2752
2754 2756
2755 2786
2755 2753
2755 2752
2755 2625
2755 2688
2755 2784
2756 2753
2756 2789
2756 2754
2757 2749
2757 2750
2757 2790
2757 3101
2757 2747
2757 2753
2757 2758
2757 2653
2758 2750
2758 2759
2758 2753
2758 2688
2758 2768
2758 2579
2758 2835
2758 2603
2758 2648
2758 2667
2758 2709
2758 2725
2758 2697
2758 2836
2758 2602
2758 2692
2758 2771
2758 2837
2758 2679
2758 2744
2758 2838
2758 2839
2758 2723
2758 2840
2758 2767
2758 2774
2758 2625
2759 2750
2759 2758
2759 3124
2759 2558
2759 2753
2759 2688
2759 2603
2759 2709
2759 2768
2759 2971
2760 2734
2760 2795
2760 2590
2760 2653
2760 2594
2760 2731
2760 2729
2760 2733
2760 2751
2760 2775
2760 2753
2761 3176
2761 3355
2761 2773
2761 3356
2761 3109
2761 2626
2761 2692
2761 2777
2762 3109
2762 2776
2762 2626
2762 2750
2762 2749
2762 2628
2763 2686
2763 2669
2763 2625
2763 2870
2763 2875
2763 2871
2763 2880
2763 2874
2763 2707
2763 2771
2763 2687
2763 2684
2763 2595
2763 2807
2763 2778
2763 2628
2763 2558
2763 2808
2763 2868
2763 2877
2763 2749
2763 2750
2763 2753
2763 2603
2763 3041
2764 2923
2764 2924
2764 2628
2764 2667
2765 2667
2765 2558
2765 2770
2765 2557
2765 2625
2765 2628
2765 2766
2765 2750
2765 2767
2765 2753
2765 2603
2765 2602
2765 2836
2765 2694
2765 2679
2765 2774
2766 3149
2766 3209
2766 3164
2766 2764
2766 2667
2766 2556
2766 2557
2766 2753
2766 2628
2766 2625
2766 2770
2766 2580
2766 2778
2766 3063
2766 3012
2767 2697
2767 2698
2767 3105
2767 2818
2767 3244
2767 2725
2767 3107
2767 2836
2767 2710
2767 2613
2767 2670
2767 2729
2767 2753
2767 2778
2767 2777
2767 2556
2767 2667
2767 2628
2767 2766
2767 3042
2767 2768
2767 2750
2767 2758
2767 2693
2767 2603
2767 2625
2767 2872
2767 2771
2767 2686
2767 2759
2767 2763
2767 2687
2767 2837
2767 2772
2767 3012
2768 2753
2768 2688
2768 2758
2768 2603
2768 2687
2768 2749
2768 2774
2768 2686
2768 2771
2768 2628
2768 2767
2768 3042
2768 2674
2768 2673
2768 3085
2768 2744
2768 3133
2769 2776
2769 2598
2769 2706
2769 2692
2769 2777
2769 2914
2769 2753
2769 2750
2769 2628
2769 2603
2769 2625
2769 2667
2769 2556
2769 2557
2769 2770
2769 2686
2769 2771
2769 2999
2769 2626
2770 2974
2770 3072
2770 3073
2770 3071
2770 3074
2770 3276
2770 3114
2770 3116
2770 3117
2770 2976
2770 2667
2770 2558
2770 2628
2770 2603
2770 2707
2770 3041
2770 3133
2770 3210
2770 3211
2770 2750
2770 3264
2770 2626
2770 3212
2770 2706
2770 2778
2771 2686
2771 2837
2771 2625
2771 2881
2771 2558
2771 2809
2771 2872
2771 2876
2771 2753
2771 2667
2771 2772
2771 2628
2771 2685
2771 2750
2771 2603
2771 2604
2771 2556
2771 2557
2771 2692
2771 2626
2772 2872
2772 2881
2772 2769
2772 2628
2772 2667
2772 2770
2772 2892
2772 2771
2772 2605
2772 3167
2772 2625
2772 2871
2772 2556
2772 2557
2772 2686
2773 2761
2773 3355
2773 3356
2773 3130
2773 3015
2773 2692
2773 2777
2773 2626
2773 2628
2773 2750
2773 2686
2773 2771
2773 3231
2773 3054
2773 2556
2773 2557
2773 2625
2773 2778
2773 3245
2773 3131
2774 2750
2774 2625
2774 2603
2774 2773
2774 2768
2774 2753
2774 2758
2774 2686
2774 2771
2775 2795
2775 2760
2775 2590
2775 2750
2776 3001
2776 3079
2776 2598
2776 2769
2776 2706
2776 2762
2776 2588
2776 2625
2776 2626
2776 2773
2776 2667
2776 2599
2776 2750
2776 2919
2776 2920
2777 2706
2777 2914
2777 2692
2777 3014
2777 3356
2777 2773
2777 2626
2777 2628
2777 3231
2777 2750
2777 2776
2777 2556
2777 2778
2777 2767
2777 2599
2777 2625
2777 3204
2777 2913
2777 3131
2777 2835
2777 3015
2777 3161
2777 2771
2777 3128
2777 2758
2778 2625
2778 2667
2778 2773
2778 2819
2778 2798
2778 2797
2778 2760
2778 2733
2778 2767
2778 2594
2778 2628
2778 2707
2778 2558
2778 2626
2778 2750
2778 2753
2778 2706
2778 2777
2778 2556
2778 2770
2778 3318
2778 3061
2778 3161
2778 2629
2779 2628
2780 2625
2780 2707
2780 2558
2780 2868
2780 2837
2780 2879
2780 3232
2780 2556
2780 2557
2780 2750
2780 2628
2780 2770
2780 2667
2780 2626
2780 3161
2780 2773
2780 2603
2780 2687
2780 3041
2780 2763
2780 2778
2780 2753
2780 2758
2780 2769
2780 2706
2781 2626
2781 2625
2781 2556
2781 2808
2782 3308
2782 3140
2782 2590
2782 2760
2782 2594
2782 2731
2782 2653
2782 2734
2783 2626
2783 2769
2783 2556
2783 2557
2783 2750
2783 2999
2784 2753
2784 2755
2784 2785
2785 2753
2785 2625
2785 2786
2785 2784
2786 2755
2786 2753
2786 2785
2786 2787
2787 2753
2787 2786
2787 2802
2787 2628
2787 2803
2788 2653
2788 2751
2788 2789
2789 2788
2789 2760
2789 2756
2790 2757
2790 3101
2790 2751
2790 2749
2790 2747
2791 2653
2791 2792
2792 2791
2792 3379
2793 2794
2794 2697
2794 2793
2794 2729
2794 2831
2794 2725
2794 2836
2794 2709
2794 3140
2795 2796
2795 2775
2795 2760
2795 2590
2795 2734
2795 2653
2795 2594
2796 2810
2796 2778
2796 2760
2796 2795
2797 2798
2797 2778
2797 2729
2797 2707
2797 2799
2797 2800
2797 2801
2798 2819
2798 2797
2799 2653
2799 2770
2800 2819
2800 2797
2800 2821
2801 2625
2801 2603
2801 2750
2801 3031
2801 2604
2801 2679
2801 3043
2801 2675
2801 2682
2801 2677
2801 2670
2801 3044
2801 3045
2801 2709
2801 2758
2801 3046
2801 3047
2801 2697
2801 2687
2801 2707
2801 2773
2801 2626
2801 3041
2801 2653
2801 2753
2801 3048
2801 2605
2802 2896
2802 2897
2802 2558
2802 2556
2802 2557
2802 2898
2802 2899
2803 2748
2803 2787
2803 2753
2803 2807
2803 2808
2803 2809
2804 2653
2804 2746
2804 2805
2804 2625
2804 2806
2805 2653
2805 2804
2805 2625
2805 2806
2806 3125
2806 2653
2806 2648
2806 2804
2806 2805
2806 3126
2806 2746
2807 2822
2807 2992
2807 2993
2807 3095
2807 2870
2807 2871
2807 2866
2807 2808
2807 2868
2807 2867
2807 2628
2807 2872
2807 2753
2807 2763
2807 3249
2808 2807
2808 2625
2808 2866
2808 2822
2808 2867
2808 2868
2808 2685
2808 2869
2808 2628
2808 2870
2808 2871
2808 2872
2808 2873
2808 2558
2808 2874
2808 2686
2808 2763
2808 2875
2808 2876
2808 2877
2808 2629
2809 2677
2809 2580
2809 2872
2809 2771
2809 2605
2809 2625
2810 2798
2810 2821
2810 2796
2811 2812
2811 2813
2811 2594
2812 3352
2812 2719
2812 2635
2812 2813
2812 2811
2813 2812
2814 2856
2814 2848
2814 2645
2814 2861
2814 2862
2814 2815
2814 2816
2814 2863
2814 2864
2815 2814
2815 2816
2816 3051
2816 2814
2816 2848
2816 2815
2816 3052
2816 3053
2816 2863
2816 2864
2817 2698
2817 2818
2817 2723
2817 2697
2817 2836
2818 2817
2818 2698
2818 2678
2818 2697
2818 2836
2818 2725
2818 2831
2818 2709
2819 2800
2819 2820
2819 2778
2819 2798
2820 3049
2820 2819
2821 2800
2821 2797
2821 2810
2822 3104
2822 2970
2822 2807
2822 2870
2822 2809
2822 2808
2822 2871
2822 2866
2822 2868
2822 2872
2822 2876
2822 2625
2822 2628
2822 2558
2822 2837
2822 2629
2822 2603
2823 2885
2823 2930
2823 2931
2823 2932
2823 2933
2823 2558
2824 2825
2825 2871
2825 2875
2826 2827
2826 2680
2826 2677
2826 2828
2826 2730
2826 2613
2827 2627
2827 2630
2827 2840
2827 3219
2827 2859
2827 2826
2827 2723
2827 3361
2827 3167
2827 2831
2828 2826
2828 2627
2828 2677
2828 2605
2828 3338
2828 2613
2829 2601
2829 2830
2829 2697
2829 2729
2829 2831
2829 2725
2829 2694
2829 2612
2830 2949
2830 3187
2830 2601
2830 2729
2830 2829
2830 2694
2830 2612
2831 2613
2831 3167
2831 2725
2831 2627
2831 2605
2831 2697
2831 2693
2831 2836
2831 2709
2831 2965
2831 3158
2831 3062
2831 3343
2831 3375
2831 3365
2832 2590
2832 2593
2832 2734
2833 2584
2833 2605
2833 2834
2834 3113
2834 2584
2834 2605
2834 2625
2834 2579
2835 2723
2835 2840
2835 2579
2835 3158
2835 3065
2835 3047
2835 2693
2835 2625
2835 2964
2835 2613
2835 2580
2835 2676
2835 2965
2835 2725
2835 2836
2835 2753
2835 2744
2835 2745
2835 2750
2835 2758
2835 3306
2836 2697
2836 2701
2836 2725
2836 2709
2836 2601
2836 2694
2836 3031
2836 2801
2836 2818
2836 2817
2836 2698
2836 2727
2836 2579
2836 2835
2836 2965
2836 2676
2836 2753
2836 2744
2836 2648
2837 3248
2837 2771
2837 3171
2837 2871
2837 2881
2837 2628
2837 2625
2837 2876
2837 2872
2837 2667
2837 2778
2837 2558
2837 2686
2837 2875
2837 2767
2837 2971
2837 2882
2837 2972
2837 2895
2838 3311
2838 3312
2838 3184
2838 2679
2838 3310
2838 3136
2838 3313
2838 2627
2838 2613
2839 2700
2839 3134
2839 3135
2839 2723
2839 3037
2839 2729
2839 2627
2839 2831
2839 2602
2839 2679
2839 2604
2839 2696
2839 3062
2840 2835
2840 2630
2840 2827
2840 3156
2840 3162
2840 2826
2840 2628
2840 3343
2840 2723
2840 2680
2840 2603
2840 2679
2840 2579
2840 2609
2840 2612
2840 2714
2840 2715
2840 3065
2841 2612
2841 2610
2841 2842
2841 2607
2841 2606
2841 2605
2841 2609
2841 2728
2842 2609
2842 2610
2842 2612
2842 3178
2842 2632
2842 2947
2842 3009
2842 2631
2842 3323
2843 2664
2843 2844
2844 2843
2844 2664
2844 3347
2844 3348
2844 3349
2844 3350
2844 3351
2844 2558
2844 2667
2845 2744
2845 2846
2845 2847
2845 2848
2845 2753
2846 2744
2846 2845
2846 2847
2846 2848
2846 2753
2846 2613
2847 2744
2847 2846
2847 2845
2847 2848
2847 2753
2848 2744
2848 2847
2848 2846
2848 2845
2848 2858
2848 2857
2848 2855
2848 2856
2848 2753
2848 3167
2849 2850
2849 2851
2849 2852
2850 2849
2850 2853
2850 2854
2851 2612
2851 3366
2851 2732
2851 2849
2852 2849
2852 3160
2853 3058
2853 2850
2854 2850
2854 3026
2854 3025
2855 2848
2855 2744
2855 2856
2855 2857
2855 2858
2855 2625
2856 2848
2856 2858
2856 2744
2856 2861
2856 2862
2856 2814
2857 2848
2857 2744
2857 2855
2857 2856
2857 2858
2857 3167
2858 2848
2858 2744
2858 2645
2858 3024
2858 3336
2859 3219
2859 2627
2859 2613
2859 2827
2859 2630
2859 2677
2859 3156
2860 2677
2860 3097
2860 3217
2860 2604
2860 2605
2861 2856
2861 2848
2861 2814
2861 2862
2861 2858
2862 2856
2862 2861
2862 2814
2862 2627
2863 2864
2863 3053
2863 2848
2863 2620
2863 3280
2864 2863
2864 2621
2864 3141
2864 3378
2864 3053
2864 2848
2864 2620
2864 3280
2865 3228
2865 2604
2865 2801
2865 2632
2866 2807
2866 2871
2866 2872
2866 2808
2866 2822
2866 2558
2867 2992
2867 3095
2867 2868
2867 2808
2868 2991
2868 2992
2868 3095
2868 2808
2868 2685
2868 2875
2868 2558
2868 2880
2868 2763
2868 2872
2868 2625
2868 2837
2868 2753
2868 2879
2868 2809
2868 2628
2868 2876
2868 2922
2869 2808
2869 2874
2869 2686
2869 2558
2870 2558
2870 2822
2870 3104
2870 2970
2870 2807
2870 2877
2870 2871
2870 2628
2870 2753
2870 2763
2870 2875
2870 2868
2870 2874
2870 2771
2870 2667
2870 2808
2870 2686
2870 2872
2870 2876
2870 2973
2870 2971
2871 2807
2871 2875
2871 2822
2871 2558
2871 2763
2871 2869
2871 2628
2871 2625
2871 2707
2871 2708
2871 2632
2871 2667
2871 2878
2871 2880
2871 2629
2871 2626
2871 2870
2872 2876
2872 2890
2872 2871
2872 2822
2872 2558
2872 2628
2872 2891
2872 2874
2872 2763
2872 2875
2872 2825
2872 2869
2872 2667
2872 2881
2872 2892
2872 2809
2872 2625
2872 2771
2872 2877
2872 2870
2872 2893
2872 2882
2872 2894
2872 2895
2873 2874
2873 2628
2873 2750
2873 2808
2873 2870
2873 2869
2874 2955
2874 2628
2874 2558
2874 2870
2874 2808
2874 2625
2874 2877
2874 2707
2875 2921
2875 2878
2875 2871
2875 2880
2875 2558
2875 2763
2875 2870
2875 2628
2875 2686
2875 2872
2875 2809
2875 2877
2875 2882
2875 2881
2875 2869
2875 2808
2876 2890
2876 2558
2876 2628
2876 2871
2876 2872
2876 2822
2876 2625
2876 2877
2876 2808
2876 2771
2877 2628
2877 2558
2877 2871
2877 2872
2877 2969
2877 2970
2877 3104
2877 2822
2877 2807
2877 2763
2877 2876
2877 2808
2877 2686
2877 2869
2877 2881
2877 2882
2877 2875
2878 2875
2878 2879
2878 2880
2878 2871
2878 2877
2878 2881
2878 2882
2879 2878
2879 2875
2879 2871
2879 2558
2879 2921
2880 2871
2880 2763
2880 2878
2881 3363
2881 2837
2881 2876
2881 2872
2881 2771
2881 2890
2881 2892
2881 2772
2881 2628
2881 2877
2881 2875
2881 2882
2881 3170
2882 2969
2882 2876
2882 2558
2882 2628
2882 2871
2882 2893
2882 2837
2882 2667
2882 2877
2882 2881
2882 2875
2882 2869
2882 2686
2883 2884
2883 2885
2883 2558
2883 2667
2883 2556
2883 2557
2884 2926
2884 2927
2884 2925
2884 2928
2884 2883
2884 2885
2885 2883
2885 2884
2885 2930
2885 2823
2885 2929
2885 2931
2885 2932
2885 2933
2885 2558
2885 2667
2885 2837
2885 2881
2886 2725
2886 2887
2886 2888
2886 2889
2887 2725
2887 2886
2887 2888
2887 2889
2888 2725
2888 2887
2888 2886
2888 2889
2889 2725
2889 2887
2889 2888
2889 2886
2890 3170
2890 3171
2890 2872
2890 2876
2890 2881
2890 2837
2890 2871
2891 2558
2891 2628
2891 2667
2891 2770
2891 2556
2891 2557
2891 2877
2891 2969
2891 2893
2891 2837
2891 2972
2891 2778
2891 2758
2892 2972
2892 2971
2892 2628
2892 2558
2892 2871
2892 2872
2892 2685
2892 2877
2892 2869
2893 2558
2893 2870
2893 2882
2893 2969
2893 2871
2893 2868
2893 2970
2893 2971
2893 2972
2893 2837
2894 3094
2894 3362
2894 2895
2894 2685
2894 2872
2895 2922
2895 2868
2895 2625
2895 2869
2895 2872
2896 3316
2896 2897
2896 2802
2897 2896
2897 2802
2897 3180
2898 2802
2898 2787
2898 2678
2898 2973
2899 2557
2899 3083
2899 2802
2900 2901
2900 2576
2900 2610
2900 2612
2900 2584
2900 2625
2901 2584
2901 2711
2901 2601
2901 2600
2901 2900
2901 2903
2902 3283
2902 2584
2902 2578
2902 2579
2903 2584
2903 2901
2903 2726
2903 2725
2903 2612
2903 2625
2903 2834
2904 2584
2904 2605
2904 2625
2905 2584
2905 2605
2905 2579
2906 2584
2906 2605
2906 2625
2906 2834
2907 2584
2907 2605
2907 2625
2907 2834
2908 2584
2908 2625
2908 2834
2909 2625
2909 2605
2909 2834
2909 2584
2910 2911
2910 2912
2911 3178
2911 3268
2911 3140
2911 2910
2912 2676
2912 3001
2912 3081
2912 2910
2913 2914
2913 2706
2913 2777
2913 2584
2914 2706
2914 2777
2914 2913
2914 2676
2915 2582
2915 2576
2915 2916
2916 2915
2916 2582
2916 2576
2916 2917
2917 2582
2917 2916
2918 2919
2918 2920
2919 2940
2919 2918
2919 2706
2919 2776
2919 2958
2919 2959
2919 2557
2919 2628
2919 2625
2919 2599
2919 2960
2919 2758
2920 3200
2920 2776
2920 2750
2921 2875
2921 2878
2921 2879
2921 2871
2921 2922
2922 2868
2922 2879
2922 2625
2922 2750
2922 2771
2922 2837
2922 2895
2923 2924
2923 2764
2924 2764
2924 2667
2924 2556
2925 2926
2925 2927
2925 2928
2925 2884
2926 2927
2926 2928
2926 2925
2926 2884
2927 2926
2927 2928
2927 2925
2927 2884
2928 2926
2928 2927
2928 2925
2928 2884
2928 3005
2929 2885
2929 2930
2929 2823
2929 2931
2929 2932
2929 2933
2929 2934
2929 2935
2929 2558
2930 2885
2930 2823
2930 2929
2930 2931
2930 2932
2930 2933
2930 2558
2931 2885
2931 2930
2931 2823
2931 2929
2931 2932
2931 2933
2931 3330
2931 2558
2932 2885
2932 2930
2932 2823
2932 2929
2932 2931
2932 2933
2932 3327
2932 2558
2933 2885
2933 2930
2933 2823
2933 2929
2933 2931
2933 2932
2933 2980
2933 2558
2933 2667
2934 2935
2935 2934
2935 2929
2935 3088
2935 3152
2935 2885
2935 2930
2935 2558
2936 2576
2936 2583
2936 2573
2937 2938
2937 2631
2938 2937
2938 2631
2939 2940
2939 2941
2939 2942
2939 2943
2939 2944
2940 2919
2940 2956
2940 2957
2940 2941
2941 2939
2941 2940
2941 2945
2941 2706
2942 3057
2942 2939
2942 3308
2942 2609
2942 2612
2943 2939
2943 2966
2944 2694
2944 2939
2944 3108
2945 2941
2945 3199
2946 3269
2946 3282
2946 3224
2946 3283
2946 2605
2946 2723
2947 2723
2947 3047
2947 2678
2947 2714
2947 2948
2947 2964
2947 2579
2947 2835
2947 2612
2947 3334
2947 2610
2947 2842
2947 2632
2947 2840
2947 3102
2948 2963
2948 2964
2948 2579
2948 2835
2948 2723
2948 2714
2948 2947
2949 3009
2949 3235
2949 3187
2949 2714
2949 2612
2950 3337
2950 2625
2950 3050
2951 2952
2951 2953
2952 3139
2952 2951
2952 3140
2953 2951
2953 3308
2953 2609
2953 2612
2953 3268
2954 2576
2954 2582
2954 2574
2954 3314
2954 2572
2954 2575
2955 2874
2955 2837
2955 2667
2955 2750
2955 2629
2955 2628
2955 2686
2955 2753
2955 2758
2956 2966
2956 2940
2956 2626
2956 2579
2957 3207
2957 3206
2957 2626
2957 2956
2957 3019
2958 2919
2958 2557
2958 2960
2958 2959
2958 2628
2958 2706
2958 2556
2958 2961
2958 2779
2959 2961
2959 2919
2959 2958
2959 2962
2959 2706
2959 2776
2960 2958
2960 2557
2960 2940
2961 2959
2961 2940
2961 2962
2962 2959
2962 2961
2963 2625
2963 2693
2963 2964
2963 2579
2963 2835
2963 2948
2964 2627
2964 2682
2964 2604
2964 2579
2964 2835
2964 3031
2964 2625
2964 2723
2964 2694
2964 2963
2964 3305
2964 2948
2964 2714
2964 2947
2964 3306
2964 2710
2964 3254
2965 2709
2965 2753
2965 2744
2965 2676
2965 3084
2965 3085
2965 2750
2965 2688
2965 2687
2965 2603
2965 2768
2965 2758
2965 2831
2965 2723
2965 2835
2966 3105
2966 2943
2966 2939
2966 3108
2966 2956
2967 2968
2968 2967
2968 2852
2968 3160
2968 2854
2968 3059
2969 2882
2969 2558
2969 2893
2969 2877
2969 2872
2969 2822
2969 2628
2969 2874
2969 2871
2969 2763
2969 2875
2969 2667
2969 2837
2969 2972
2970 2822
2970 2870
2970 3104
2970 2877
2970 2871
2971 2972
2971 2892
2971 2558
2971 2871
2971 2970
2971 2625
2971 2882
2971 2837
2972 2892
2972 2971
2972 2558
2972 2870
2972 2871
2972 2628
2972 2874
2972 2770
2972 2667
2973 2628
2973 2707
2973 2558
2973 2870
2973 2869
2973 2808
2973 2868
2973 2822
2973 2807
2974 3278
2974 3279
2974 3275
2974 3072
2974 3073
2974 3071
2974 3074
2974 2770
2974 3276
2974 2558
2974 2667
2974 3264
2974 2603
2974 2626
2974 3284
2975 2558
2975 2667
2975 2750
2975 2753
2976 2770
2976 2558
2977 2770
2977 2978
2977 2979
2978 2977
2978 3164
2978 2770
2978 2979
2979 2770
2980 2933
2980 3168
2981 2982
2981 2800
2982 2981
2982 2800
2983 2984
2983 2985
2984 2983
2984 3016
2984 2985
2984 3017
2984 3018
2984 2558
2985 2983
2985 3016
2985 2984
2985 3330
2985 3264
2985 2558
2985 2667
2985 2626
2986 2612
2986 2605
2986 2987
2986 2714
2986 2715
2987 2998
2987 3027
2987 3029
2987 3030
2987 2681
2987 3045
2988 2808
2988 2807
2988 2989
2988 2809
2989 2625
2989 2685
2989 2988
2989 2824
2990 2991
2990 2992
2990 2993
2990 2807
2990 2871
2990 2872
2990 2870
2990 2771
2991 3363
2991 2992
2991 2990
2992 2991
2992 2868
2992 2990
2992 2807
2992 2993
2992 3095
2993 2992
2993 2807
2993 3095
2993 2972
2994 2995
2994 2996
2994 2997
2994 2998
2995 2996
2995 2994
2995 2997
2995 2681
2995 2604
2995 2998
2995 2986
2995 2612
2996 2995
2996 2998
2996 2994
2996 2997
2997 2995
2997 2998
2998 3027
2998 2605
2998 2696
2998 2697
2998 2987
2998 3029
2998 3030
2999 2556
2999 2557
2999 2769
2999 2626
2999 3232
2999 2692
2999 2783
2999 2750
2999 2625
2999 2686
2999 2771
3000 3001
3000 2625
3000 2778
3000 3002
3001 2776
3001 3079
3001 3000
3001 3081
3001 2912
3001 2625
3002 3000
3002 3003
3002 3004
3002 3057
3003 3002
3003 3004
3004 3138
3004 3003
3004 3002
3004 2625
3004 2653
3004 2640
3004 2773
3004 2692
3004 2750
3005 2928
3005 3086
3005 3092
3006 3007
3006 3008
3006 2770
3007 3276
3007 3006
3007 3008
3007 2770
3008 3032
3008 3006
3008 2770
3009 2598
3009 2949
3009 2612
3009 2694
3009 2670
3009 2605
3009 2609
3009 2632
3009 2839
3009 2602
3009 3185
3010 2612
3010 2633
3010 2632
3010 2631
3011 2556
3011 2557
3011 3012
3011 2626
3012 2628
3012 2687
3012 2626
3012 3186
3012 3191
3012 3011
3012 2556
3012 2557
3012 2750
3012 2603
3012 2771
3012 2667
3012 2685
3013 2640
3013 2639
3013 3014
3013 2692
3013 2777
3014 3356
3014 2692
3014 2777
3014 2773
3014 3013
3014 2640
3014 2691
3014 2706
3014 3132
3014 2914
3015 2773
3015 3130
3015 2692
3015 2626
3015 3129
3015 3128
3015 2777
3015 2774
3016 3005
3016 3086
3016 3092
3016 2983
3016 2984
3016 2985
3017 2984
3017 3018
3017 2558
3018 2984
3018 3017
3018 3035
3018 3036
3018 3034
3019 2957
3019 3020
3020 3019
3020 3196
3021 3255
3021 3256
3022 3201
3022 3340
3022 3123
3022 2813
3022 3202
3023 3024
3023 2858
3024 2858
3024 3023
3024 2621
3024 2864
3025 2737
3025 2854
3025 3026
3026 3025
3026 2853
3026 2854
3026 2850
3026 3366
3026 3033
3026 3122
3026 3123
3027 2604
3027 2605
3027 3028
3027 2674
3027 2998
3027 2987
3027 3029
3027 3030
3027 2682
3027 3031
3027 2676
3028 3027
3028 3269
3028 3178
3028 2614
3029 2998
3029 3027
3029 2995
3029 2987
3029 3030
3030 2605
3030 2998
3030 3027
3030 2995
3030 3029
3030 2987
3031 2682
3031 2675
3031 2801
3031 2679
3031 2681
3031 2698
3031 2818
3031 2817
3031 2693
3031 2579
3031 2694
3031 2964
3031 2835
3031 2723
3031 2625
3031 2676
3031 3027
3032 3234
3032 3326
3032 3007
3032 3115
3032 3374
3032 3006
3032 3008
3032 2558
3032 2628
3032 2667
3032 2770
3032 2626
3032 2974
3032 2556
3032 2557
3032 3264
3033 3122
3033 3026
3033 3123
3033 2636
3034 2556
3034 3035
3034 3036
3034 2667
3035 2662
3035 3036
3035 3034
3036 3035
3036 3034
3037 2723
3037 2839
3037 3134
3037 2687
3037 3084
3037 2676
3037 2700
3038 3037
3038 2839
3038 2687
3038 3039
3038 3084
3039 2723
3039 3037
3039 3038
3039 2687
3039 3084
3039 2676
3040 2625
3040 3164
3040 2778
3040 2667
3040 3163
3040 2750
3040 2763
3040 2556
3041 2680
3041 2667
3041 2770
3041 2625
3041 2707
3041 2709
3041 3116
3041 2687
3041 2801
3042 2753
3042 2766
3042 2758
3042 2835
3042 2557
3043 2604
3043 2657
3043 2656
3043 2679
3043 3156
3043 3329
3044 2809
3044 2801
3044 2625
3044 2822
3044 2753
3044 3048
3045 2604
3045 2675
3045 2681
3045 2682
3045 3027
3045 3031
3045 2674
3045 2673
3045 2753
3045 2744
3045 2632
3045 2995
3045 2998
3045 2579
3045 2835
3045 2696
3045 2987
3045 2676
3045 2965
3045 2709
3045 3047
3045 3065
3046 2801
3047 2835
3047 2723
3047 2579
3047 3045
3047 2604
3047 2947
3047 2678
3047 2625
3047 3065
3048 2809
3048 3044
3048 2753
3048 2801
3048 2670
3049 3050
3049 2820
3050 2950
3050 2850
3050 3049
3051 2816
3051 2732
3051 2703
3052 2816
3052 3053
3053 2816
3053 2848
3053 3052
3053 2621
3053 2618
3053 2863
3053 3281
3053 2864
3054 3055
3054 2773
3054 2692
3055 2773
3055 3015
3055 2628
3055 2692
3055 3129
3056 2763
3057 3002
3057 2942
3057 2694
3057 2670
3057 2696
3058 3059
3058 2853
3059 3160
3059 3058
3060 3061
3060 2670
3060 2625
3060 2654
3061 2625
3061 2670
3061 3318
3061 3320
3061 3319
3061 3060
3061 3165
3062 3343
3062 2831
3062 2729
3062 2677
3062 3158
3062 3365
3062 2604
3063 2729
3063 2628
3063 2667
3063 2625
3063 2626
3063 2766
3063 3227
3063 2767
3063 2753
3064 2974
3064 2558
3064 2667
3065 3047
3065 3045
3065 2604
3065 3328
3065 2630
3065 2723
3065 2840
3065 2835
3065 3149
3066 3067
3066 3068
3066 3069
3066 3070
3066 2667
3067 3090
3067 3089
3067 3070
3067 3066
3068 3066
3068 3069
3069 3068
3069 3066
3070 3090
3070 3089
3070 3067
3070 2666
3070 2667
3070 2558
3070 2550
3070 2770
3070 2974
3071 2974
3071 3072
3071 3073
3071 3074
3071 2770
3072 2974
3072 3073
3072 3074
3072 3276
3072 2770
3073 3275
3073 2974
3073 3072
3073 3074
3073 3276
3073 2770
3074 3279
3074 2974
3074 3072
3074 3073
3074 3071
3074 3276
3074 2770
3075 3093
3075 3082
3075 2958
3075 2557
3075 2750
3076 2707
3076 3077
3076 3078
3077 2707
3077 3078
3077 3076
3078 2707
3078 3077
3078 3076
3079 3001
3079 2776
3079 3080
3079 2723
3079 2605
3080 3079
3080 2839
3080 2723
3081 2910
3081 2725
3081 2726
3081 2912
3081 3001
3081 2727
3082 3075
3083 2557
3083 2899
3083 2556
3083 2706
3084 3039
3084 2676
3084 3085
3084 2965
3084 3038
3084 3037
3084 2839
3084 2723
3084 2682
3084 2687
3084 2840
3085 2676
3085 2579
3085 2835
3085 2723
3085 2965
3085 2682
3085 2681
3085 2768
3086 3005
3086 3092
3086 3016
3086 2567
3086 3087
3086 3088
3087 3086
3087 2567
3087 3088
3087 3198
3088 3086
3088 2567
3088 3087
3088 2935
3088 3152
3089 3090
3089 3070
3089 3067
3089 2667
3089 2558
3090 3089
3090 3070
3090 3067
3090 2667
3091 3092
3092 3005
3092 3086
3092 3016
3092 3091
3092 2985
3093 3075
3093 3082
3094 2809
3094 3044
3094 2685
3094 2894
3095 2992
3095 2807
3095 2993
3095 2867
3095 2868
3096 3097
3096 3098
3096 2639
3096 2641
3096 3099
3096 3100
3097 2648
3097 2579
3097 3243
3097 3242
3097 3217
3097 3367
3097 3329
3097 2613
3097 3219
3097 2831
3097 2651
3097 3382
3097 2558
3097 2706
3097 2667
3098 3099
3098 2639
3098 2641
3098 3096
3099 2641
3099 3098
3100 3096
3100 3207
3101 2790
3101 2757
3101 2750
3102 2709
3102 2715
3102 2609
3102 2947
3102 2949
3102 2612
3102 2605
3102 2842
3102 2579
3102 2835
3102 2965
3102 3097
3102 3103
3103 2709
3103 3329
3103 3097
3103 3242
3104 2822
3104 2970
3104 2807
3104 2877
3105 2966
3105 2767
3105 2698
3105 2836
3105 2725
3106 2725
3106 2794
3107 2604
3107 2696
3107 3188
3107 2609
3107 2612
3107 2685
3108 2944
3108 2966
3109 2697
3109 3199
3109 2625
3109 2762
3109 2626
3110 2682
3110 3031
3110 2693
3110 2579
3110 2625
3111 2554
3111 2557
3111 3112
3112 2554
3112 3111
3112 2557
3113 2834
3113 2625
3114 2770
3114 3115
3114 3116
3114 3117
3114 2976
3114 3118
3114 2758
3114 2557
3115 2770
3115 3032
3115 3116
3115 3117
3115 2976
3115 3007
3115 3374
3115 3006
3115 3008
3115 2667
3115 3326
3115 2626
3115 3114
3115 2556
3115 2557
3115 2974
3115 3071
3115 2750
3116 2770
3116 3115
3116 3114
3116 3117
3116 2976
3116 3213
3116 2667
3116 3214
3117 2770
3117 3071
3117 2974
3118 3114
3118 2770
3119 2745
3119 2645
3119 3120
3119 2648
3120 3119
3120 2745
3120 2645
3120 2648
3120 2746
3120 2653
3121 2636
3121 2746
3121 2653
3121 2791
3122 3033
3122 3123
3122 2636
3123 3122
3123 3340
3123 3026
3123 3033
3123 2636
3123 3004
3124 2759
3124 2557
3124 2558
3125 2653
3125 2806
3125 3127
3125 2672
3126 2806
3126 2653
3126 3155
3127 3379
3127 3125
3128 2773
3128 3129
3128 3015
3128 2777
3128 2556
3128 2692
3128 3055
3128 2628
3128 2626
3128 2778
3128 2750
3129 3128
3129 3015
3129 2773
3129 2626
3129 3055
3129 2692
3129 2628
3130 2773
3130 3015
3130 3131
3130 2777
3131 2773
3131 3130
3131 3015
3131 2777
3131 2628
3131 2771
3131 2686
3131 3247
3131 3231
3131 2692
3131 3004
3131 2640
3131 2639
3131 3013
3131 2641
3131 3099
3131 3098
3131 3096
3131 3100
3131 3207
3131 2957
3131 3273
3131 3019
3131 3274
3131 3020
3131 3208
3131 3196
3131 3174
3131 3175
3131 3173
3131 3176
3131 2761
3131 3014
3131 2706
3131 3132
3131 2914
3131 2913
3132 3097
3132 2692
3132 2691
3132 2599
3133 2628
3133 2710
3133 3210
3133 2579
3133 2629
3133 2625
3133 2707
3133 2603
3133 2686
3133 2556
3133 2557
3133 2667
3133 2770
3133 3211
3133 2835
3134 3135
3134 3136
3134 3137
3135 3134
3136 3313
3136 2580
3136 3137
3136 3134
3136 2627
3136 2838
3137 3189
3137 3136
3138 3004
3138 3203
3139 3140
3139 2952
3140 2594
3140 2733
3140 2778
3140 3139
3141 2621
3141 3142
3141 2618
3141 2864
3142 3141
3142 2621
3143 3144
3143 3145
3143 3146
3143 3147
3143 3148
3144 3277
3144 3145
3144 3146
3144 3143
3144 3147
3144 2770
3145 3144
3145 3146
3145 3143
3145 3147
3145 3148
3145 3304
3145 3278
3146 3144
3146 3145
3146 3143
3146 3147
3146 3148
3146 3277
3147 3144
3147 3145
3147 3146
3147 3143
3147 3148
3148 3144
3148 3145
3148 3146
3148 3143
3148 3147
3148 3234
3149 2766
3149 2667
3149 3209
3149 2840
3150 2661
3150 2555
3150 2556
3150 2558
3150 2667
3151 3152
3151 3153
3151 3154
3151 2556
3151 2667
3151 2557
3151 2770
3152 2935
3152 3088
3152 3154
3152 3151
3153 3302
3153 3152
3153 3154
3153 3151
3154 3152
3154 3153
3154 3151
3154 2667
3154 2565
3154 2561
3154 2556
3154 2626
3155 2653
3155 2648
3155 2731
3155 2753
3156 2840
3156 2827
3156 2679
3156 3043
3156 2613
3156 2859
3157 3253
3157 3341
3157 3342
3157 2586
3157 2556
3158 3329
3158 2580
3158 2613
3158 3233
3158 2679
3158 3219
3158 3254
3158 2604
3158 2678
3158 3043
3158 2835
3158 2579
3158 2709
3158 2965
3158 2605
3158 3324
3159 2740
3159 2652
3159 2741
3159 2657
3159 3120
3160 2852
3160 3059
3161 3107
3161 2778
3161 2605
3161 2780
3161 3262
3161 2628
3161 2706
3161 2777
3161 2556
3161 2750
3161 2771
3161 2733
3161 2625
3161 2774
3162 3167
3162 2730
3162 2613
3163 3040
3163 2625
3163 2974
3163 2667
3163 3164
3163 2778
3163 2628
3163 3165
3163 3166
3163 2654
3163 2853
3163 3167
3163 2603
3163 2626
3163 2753
3163 2629
3164 3172
3164 2667
3164 2770
3164 2557
3164 3040
3164 2556
3164 2766
3165 3061
3165 3166
3165 2778
3166 3165
3166 3376
3166 3299
3166 2709
3166 2725
3167 2613
3167 2580
3167 3041
3167 3162
3167 2667
3167 2557
3167 2770
3167 2750
3167 2730
3168 3181
3168 2667
3168 2558
3169 2723
3169 2579
3170 2990
3170 2890
3170 3171
3170 2881
3170 2837
3170 2876
3170 2872
3170 2558
3170 2771
3170 2871
3170 2822
3171 2881
3171 2837
3171 3170
3171 2890
3171 2872
3171 2876
3171 2771
3171 2871
3172 3164
3172 2667
3172 2770
3172 2557
3173 3174
3173 3175
3173 3176
3174 3196
3174 3175
3174 3173
3174 3176
3174 3199
3175 3173
3175 2761
3175 3174
3175 3199
3176 2761
3176 3175
3176 3173
3176 3174
3176 2709
3176 2608
3176 2725
3176 3178
3177 3214
3177 2773
3177 3291
3177 3245
3177 3246
3178 2911
3178 3241
3178 3226
3178 2614
3178 3225
3178 3267
3178 2954
3178 2678
3178 2946
3178 3224
3178 2865
3178 2632
3178 2609
3178 2727
3178 2612
3178 2725
3178 2709
3178 3176
3178 2608
3179 2571
3179 2559
3179 2558
3180 2897
3180 2561
3181 3236
3181 3168
3182 2679
3182 3184
3182 2678
3182 2602
3182 3183
3182 2604
3183 2679
3183 3184
3183 2678
3183 2602
3183 3182
3183 2604
3184 2679
3184 2838
3184 3043
3184 2678
3184 2602
3184 3182
3184 2604
3184 2613
3184 2697
3184 2753
3184 2744
3184 2603
3184 2759
3185 3009
3185 2612
3185 2949
3185 2694
3185 2715
3186 3012
3186 2626
3187 2949
3187 2601
3187 2830
3187 3235
3187 2678
3187 2679
3188 2605
3188 3107
3188 2696
3188 2767
3188 2685
3189 3137
3190 2723
3190 2679
3191 3012
3191 2626
3192 2872
3192 3193
3192 2881
3192 2892
3192 3194
3192 3195
3192 2628
3193 2872
3193 3192
3193 2881
3193 2892
3193 3194
3193 3195
3194 2872
3194 3193
3194 2881
3194 2892
3194 3192
3194 3195
3194 2628
3195 2872
3195 3192
3195 3193
3195 2881
3195 2892
3195 3194
3195 2628
3196 3020
3196 3174
3197 3198
3197 2667
3197 2558
3197 2556
3197 2557
3197 2770
3197 3154
3198 3087
3198 3197
3199 2945
3199 3175
3199 3173
3199 3174
3199 3109
3199 2612
3200 2920
3201 3022
3201 2590
3201 3202
3202 3004
3202 3201
3202 3203
3203 3202
3203 3204
3203 3004
3203 3138
3204 3203
3204 3202
3204 2556
3204 2777
3204 2632
3204 2625
3205 3206
3205 3207
3205 3099
3205 3208
3205 2957
3205 2626
3206 3205
3206 3208
3206 3207
3206 2625
3206 3273
3206 3274
3206 2957
3207 3273
3207 3274
3207 3208
3207 3098
3207 3100
3207 3096
3207 3205
3207 3099
3207 2957
3207 2625
3207 2801
3207 2890
3208 3207
3208 3273
3208 3274
3208 3205
3208 3206
3208 2957
3208 2801
3208 2628
3209 2766
3209 2667
3209 2770
3209 2556
3209 2557
3209 3012
3210 3133
3210 2710
3210 2579
3210 2628
3210 2667
3210 2770
3210 3211
3211 3133
3211 3210
3211 2667
3211 2770
3212 2667
3212 3264
3212 2626
3212 2770
3213 3116
3213 3214
3213 2770
3214 3213
3214 3116
3214 2770
3215 2625
3215 3216
3216 2625
3216 3215
3217 3271
3217 2604
3217 2602
3217 3097
3217 3367
3218 2675
3218 2604
3218 2677
3218 2625
3219 2859
3219 2677
3219 2604
3219 3158
3219 3254
3220 3221
3220 2648
3221 2648
3221 3220
3222 2589
3222 2684
3222 2591
3222 3223
3223 2589
3223 3222
3223 2684
3223 2591
3224 2614
3224 2946
3224 3282
3224 3283
3224 2609
3224 2727
3225 2614
3225 3178
3226 3178
3226 3241
3226 2614
3226 3225
3226 2938
3227 2697
3227 2725
3227 3063
3227 2767
3228 2865
3228 3102
3228 2723
3229 3055
3229 2692
3229 2773
3229 2771
3229 3230
3229 3128
3229 3231
3229 2686
3229 2628
3229 2777
3229 2556
3229 3232
3230 2773
3230 2692
3230 2778
3231 3207
3231 3274
3231 2628
3231 2773
3231 2750
3231 2686
3231 2771
3231 3229
3231 3245
3232 2557
3232 2556
3232 2999
3232 2707
3232 2692
3232 3012
3233 3158
3233 2628
3233 2625
3233 2613
3234 3032
3235 3187
3235 2949
3236 3181
3237 2609
3237 3238
3237 2612
3237 3178
3237 2610
3237 2723
3238 2609
3238 3237
3238 2612
3238 3178
3238 2610
3238 2723
3239 3240
3240 3239
3240 2773
3240 2625
3240 2750
3241 3178
3241 3226
3241 2614
3241 3225
3242 3243
3242 3097
3242 2604
3243 3328
3243 3097
3244 2697
3244 2709
3244 2818
3244 2767
3245 2773
3245 3099
3245 3098
3245 3246
3245 3247
3245 3177
3245 2626
3245 2628
3245 3231
3245 2778
3246 2773
3246 3245
3246 2626
3246 2603
3246 2556
3246 2557
3246 2692
3246 2628
3246 2777
3246 3297
3247 2626
3247 3263
3247 2628
3247 2773
3247 2625
3247 2777
3247 3015
3247 2692
3247 2558
3247 2778
3247 2557
3247 2707
3247 3264
3247 2667
3247 2750
3247 2686
3248 2837
3248 3249
3249 3362
3249 2807
3249 2894
3249 2685
3249 2871
3250 3251
3250 3041
3250 2667
3250 2625
3250 2770
3250 3232
3251 2667
3251 3041
3251 3250
3251 2770
3251 2625
3251 2780
3251 2707
3252 3253
3252 2549
3252 2548
3253 3252
3253 3341
3253 3342
3254 3158
3254 3219
3255 3021
3255 3316
3256 3021
3256 3257
3256 3258
3256 3259
3256 2667
3256 2556
3257 3335
3257 3258
3257 3259
3257 3287
3257 2549
3257 3256
3258 3335
3258 3257
3258 3259
3258 3266
3258 3256
3259 3335
3259 3257
3259 3258
3259 3256
3260 2605
3260 3261
3261 2605
3261 3260
3262 2706
3262 2667
3262 2770
3262 3161
3262 3140
3262 2960
3263 2628
3264 3330
3264 2985
3264 2558
3264 2667
3264 2626
3264 3212
3264 3154
3264 2554
3264 3247
3264 3331
3264 2781
3264 3292
3265 3266
3266 3258
3266 3265
3267 2575
3267 3178
3268 2953
3268 2612
3268 2911
3269 3028
3269 2946
3270 3271
3270 3272
3270 2686
3270 2750
3270 2603
3270 2771
3270 2667
3270 2707
3270 2556
3270 2768
3271 3217
3271 3272
3271 2767
3272 3271
3272 2707
3273 3207
3273 3096
3273 3208
3273 3274
3273 3100
3273 3205
3273 3206
3273 2957
3274 3207
3274 3231
3274 3096
3274 3100
3274 3208
3274 3273
3274 3206
3274 3205
3274 2957
3275 3073
3275 3278
3275 2974
3275 3279
3275 2770
3276 2974
3276 3072
3276 3073
3276 3071
3276 3074
3276 2770
3276 3007
3277 3144
3277 3146
3278 3304
3278 3145
3278 2974
3278 3279
3278 3073
3278 2770
3279 3074
3279 3278
3279 3275
3279 2974
3279 2770
3280 2731
3280 2864
3280 3319
3281 3053
3281 2864
3282 2946
3282 3224
3282 3283
3282 3289
3283 2902
3283 2946
3283 3303
3284 2974
3284 2770
3285 3286
3286 3285
3286 3304
3287 3257
3287 2549
3288 2946
3288 3289
3288 3282
3288 2938
3288 2631
3288 3290
3288 2609
3288 2633
3289 3282
3289 3288
3290 2946
3290 3303
3290 3288
3290 2631
3290 3283
3290 3028
3290 3282
3290 3339
3290 2609
3291 2773
3291 3177
3291 3245
3291 3246
3292 2667
3292 2750
3292 2556
3292 2557
3292 2770
3292 2781
3292 2764
3292 2628
3292 3264
3293 2618
3293 2617
3293 2616
3294 2621
3294 3295
3294 3053
3295 3381
3295 3053
3295 2621
3295 3294
3295 3141
3296 2773
3296 3297
3296 2626
3296 3231
3296 3161
3297 2773
3297 3296
3297 2626
3297 3161
3298 2709
3298 2647
3298 2648
3298 2654
3299 3300
3299 3301
3300 3299
3300 3377
3300 3301
3301 3300
3301 3299
3301 2625
3301 2737
3302 2565
3302 3153
3303 3283
3303 3290
3303 2633
3304 3286
3304 3145
3304 3278
3304 3144
3305 2625
3305 2605
3305 2964
3305 2963
3305 2835
3305 2948
3306 2605
3306 2964
3306 2579
3306 3345
3306 3344
3306 3346
3306 2625
3307 2609
3307 2610
3307 2612
3307 2842
3307 2605
3307 2611
3307 3009
3308 2719
3308 2782
3309 2715
3309 2716
3310 2838
3310 3136
3310 2627
3310 3184
3310 2679
3311 2838
3311 3312
3311 3136
3311 2627
3311 2679
3311 3043
3312 3311
3312 2838
3312 3184
3312 3315
3312 2602
3312 2679
3313 3136
3314 2954
3314 2574
3315 2670
3315 2838
3315 2605
3315 3312
3315 2709
3315 3243
3315 3328
3315 3103
3315 2794
3315 3162
3315 2603
3316 2896
3316 3255
3317 2625
3317 2653
3317 2686
3317 2771
3317 2778
3317 3116
3318 3319
3318 3320
3318 3061
3319 3280
3319 3320
3319 3318
3319 3061
3320 3319
3320 2625
3320 3061
3320 3318
3321 2645
3321 2745
3321 2618
3322 2625
3322 2808
3322 2603
3322 2869
3323 2632
3323 2842
3324 3219
3324 2627
3324 2677
3324 2613
3324 3167
3325 2686
3325 3227
3326 3006
3326 3008
3326 3007
3326 3115
3327 2932
3327 3359
3327 2558
3327 3331
3328 3243
3328 3329
3328 3380
3328 3097
3329 3243
3329 3328
3329 3158
3329 2679
3329 3043
3330 2931
3330 2985
3330 3264
3330 2558
3330 2667
3331 2558
3331 3327
3331 3364
3332 2626
3332 2999
3332 2556
3332 2557
3332 3232
3332 2783
3332 3333
3333 2999
3333 2556
3333 2557
3333 2769
3333 2692
3333 3332
3334 2723
3334 2612
3334 3079
3334 3047
3334 2579
3334 2947
3334 2610
3334 3158
3334 2714
3334 3360
3335 3256
3335 3257
3335 3258
3335 3259
3335 2556
3335 2667
3336 2858
3336 2645
3336 3024
3337 2950
3338 2828
3338 2558
3338 3097
3339 3288
3339 2609
3340 3022
3340 3123
3340 2813
3341 3253
3341 3342
3342 3253
3342 3252
3342 3341
3342 3157
3343 3062
3343 2831
3343 2677
3343 2604
3344 3306
3344 2579
3344 3345
3344 2835
3344 3346
3344 2964
3345 3306
3345 2579
3345 2835
3346 3306
3346 2964
3346 2579
3346 2835
3346 3345
3346 2948
3346 2963
3347 2721
3347 3370
3347 2844
3347 3348
3347 3349
3347 3350
3347 3351
3347 2558
3348 2844
3348 3347
3348 3349
3348 3350
3348 3351
3349 2844
3349 3347
3349 3348
3349 3350
3349 3351
3349 2667
3350 2844
3350 3347
3350 3348
3350 3349
3350 3351
3351 2844
3351 3347
3351 3348
3351 3349
3351 3350
3351 2550
3351 2985
3351 3331
3352 2739
3352 2719
3352 3353
3353 3354
3353 2719
3353 3352
3354 3379
3354 3353
3354 3352
3354 2812
3355 2761
3355 3176
3355 2773
3355 3356
3355 2692
3355 2777
3356 2761
3356 3355
3356 2773
3356 3014
3356 2692
3356 2777
3357 3358
3357 2627
3357 2838
3357 2679
3358 2838
3358 2679
3358 3357
3359 3327
3359 2628
3360 2612
3360 2840
3360 3334
3360 2723
3361 2627
3361 2827
3362 2894
3362 2685
3362 3094
3362 3249
3362 3203
3362 3204
3363 2991
3363 2881
3363 3248
3363 2872
3363 2558
3363 2771
3363 2625
3364 2974
3364 3064
3364 3070
3364 2667
3364 2628
3365 2831
3365 3062
3365 3343
3365 2628
3365 2667
3366 2704
3366 2851
3367 2604
3367 3217
3367 2725
3367 2836
3367 2670
3367 3097
3367 3102
3367 3242
3368 3369
3368 2725
3369 3368
3369 2725
3369 3244
3370 2721
3370 3347
3370 2558
3371 2883
3371 2721
3371 2884
3371 2885
3371 2553
3372 2610
3372 3373
3372 2605
3372 2609
3372 2841
3372 3288
3372 3289
3372 2612
3372 2631
3372 2632
3373 2610
3373 2609
3373 3372
3373 2612
3373 2611
3374 3032
3374 2770
3374 3006
3374 3008
3375 2831
3375 2677
3376 3166
3376 3377
3377 3376
3377 3300
3378 3141
3378 2621
3378 2864
3379 2792
3379 3127
3380 2677
3380 3328
3380 3243
3381 3295
3381 2621
3381 2864
3382 2648
